*********************************
*          Input Data           *
*********************************

***** Node Data ******
                  No                   X                   Y                   Z
--------------------------------------------------------------------------------
                   1                   0                   0                   0
                   2                   1                   0                   0
                   3                   2                   0                   0
                   4                   3                   0                   0
                   5                   0                   0                   1
                   6                   1                   0                   1
                   7                   2                   0                   1
                   8                   3                   0                   1
                   9                   0                   1                   0
                  10                   1                   1                   0
                  11                   2                   1                   0
                  12                   3                   1                   0
                  13                   0                   1                   1
                  14                   1                   1                   1
                  15                   2                   1                   1
                  16                   3                   1                   1

***** Element Data ******
                  No                Type                             Node No               Young             Poisson           Thickness                Area             Density
--------------------------------------------------------------------------------------------------------------------------------------------------------------------------------
                   1                C3D8                  1 2 10 9 5 6 14 13              210000                 0.3                None                None                7850
                   2                C3D8                 2 3 11 10 6 7 15 14              210000                 0.3                None                None                7850
                   3                C3D8                 3 4 12 11 7 8 16 15              210000                 0.3                None                None                7850

***** SPC Constraint Data ******
              NodeNo      X Displacement      Y Displacement      Z Displacement
--------------------------------------------------------------------------------
                   1                   0                   0                   0
                   5                   0                   0                   0
                   9                   0                   0                   0
                  13                   0                   0                   0

***** Nodal Force Data ******
              NodeNo             X Force             Y Force             Z Force
--------------------------------------------------------------------------------
                   4                   0                   0              -10000
                   8                   0                   0              -10000
                  12                   0                   0              -10000
                  16                   0                   0              -10000

**********************************
*          Result Data           *
**********************************

*Increment 1

***** Displacement Data ******
              NodeNo           Magnitude      X Displacement      Y Displacement      Z Displacement
----------------------------------------------------------------------------------------------------
                   1                   0                   0                   0                   0
                   2         5.487524441        -3.533625091        0.5112622795        -4.167136798
                   3           14.939426        -5.637788454        0.1675952054        -13.83378844
                   4          27.0655455        -6.344496926       0.07731301851        -26.31131191
                   5                   0                   0                   0                   0
                   6         5.487524441         3.533625091       -0.5112622795        -4.167136798
                   7           14.939426         5.637788454       -0.1675952054        -13.83378844
                   8          27.0655455         6.344496926      -0.07731301851        -26.31131191
                   9                   0                   0                   0                   0
                  10         5.487524441        -3.533625091       -0.5112622795        -4.167136798
                  11           14.939426        -5.637788454       -0.1675952054        -13.83378844
                  12          27.0655455        -6.344496926      -0.07731301851        -26.31131191
                  13                   0                   0                   0                   0
                  14         5.487524441         3.533625091        0.5112622795        -4.167136798
                  15           14.939426         5.637788454        0.1675952054        -13.83378844
                  16          27.0655455         6.344496926       0.07731301851        -26.31131191

***** Stress Data ******
          Element No         Integral No           Stress XX           Stress YY           Stress ZZ           Stress XY           Stress XZ           Stress YZ               Mises
------------------------------------------------------------------------------------------------------------------------------------------------------------------------------------
                   1                   1        -190959.2086         86445.36132         104513.8473         12341.00541        -193612.2265        -9034.242979         442098.2728
                   1                   2        -194636.6488         59712.31798         134924.3308         13764.75368         113612.2365        -37606.00641         364711.6709
                   1                   3        -194636.6488         59712.31798         134924.3308        -13764.75368         113612.2365         37606.00641         364711.6709
                   1                   4        -190959.2086         86445.36132         104513.8473        -12341.00541        -193612.2265         9034.242979         442098.2728
                   1                   5         190959.2086        -86445.36132        -104513.8473        -12341.00541        -193612.2265        -9034.242979         442098.2728
                   1                   6         194636.6488        -59712.31798        -134924.3308        -13764.75368         113612.2365        -37606.00641         364711.6709
                   1                   7         194636.6488        -59712.31798        -134924.3308         13764.75368         113612.2365         37606.00641         364711.6709
                   1                   8         190959.2086        -86445.36132        -104513.8473         12341.00541        -193612.2265         9034.242979         442098.2728
                   2                   1         -103556.079         10868.88912         92687.18992        -9252.575074        -138121.6345         -40909.1504         302753.4113
                   2                   2        -115892.8458         35542.42265         80350.42316        -9252.575074         58121.63448        -22404.00025         208861.0311
                   2                   3        -115892.8458         35542.42265         80350.42316         9252.575074         58121.63448         22404.00025         208861.0311
                   2                   4         -103556.079         10868.88912         92687.18992         9252.575074        -138121.6345          40909.1504         302753.4113
                   2                   5          103556.079        -10868.88912        -92687.18992         9252.575074        -138121.6345         -40909.1504         302753.4113
                   2                   6         115892.8458        -35542.42265        -80350.42316         9252.575074         58121.63448        -22404.00025         208861.0311
                   2                   7         115892.8458        -35542.42265        -80350.42316        -9252.575074         58121.63448         22404.00025         208861.0311
                   2                   8          103556.079        -10868.88912        -92687.18992        -9252.575074        -138121.6345          40909.1504         302753.4113
                   3                   1        -34706.25641         3501.860067         31204.39635        -2430.674261        -72955.32638        -13851.26814         140877.5666
                   3                   2        -37947.15543         9983.658097         27963.49733        -2430.674261        -7044.673619        -8989.919618         62381.79704
                   3                   3        -37947.15543         9983.658097         27963.49733         2430.674261        -7044.673619         8989.919618         62381.79704
                   3                   4        -34706.25641         3501.860067         31204.39635         2430.674261        -72955.32638         13851.26814         140877.5666
                   3                   5         34706.25641        -3501.860067        -31204.39635         2430.674261        -72955.32638        -13851.26814         140877.5666
                   3                   6         37947.15543        -9983.658097        -27963.49733         2430.674261        -7044.673619        -8989.919618         62381.79704
                   3                   7         37947.15543        -9983.658097        -27963.49733        -2430.674261        -7044.673619         8989.919618         62381.79704
                   3                   8         34706.25641        -3501.860067        -31204.39635        -2430.674261        -72955.32638         13851.26814         140877.5666

***** Strain Data ******
          Element No         Integral No           Strain XX           Strain YY           Strain ZZ           Strain XY           Strain XZ           Strain YZ
----------------------------------------------------------------------------------------------------------------------------------------------------------------
                   1                   1         -1.31850738        0.5968753625        0.7216320174        0.1704207598        -2.673651104       -0.1247566549
                   1                   2         -1.20489354        0.3696476828        0.8352458573        0.1704207598          1.40662769       -0.4655981746
                   1                   3         -1.20489354        0.3696476828        0.8352458573       -0.1704207598          1.40662769        0.4655981746
                   1                   4         -1.31850738        0.5968753625        0.7216320174       -0.1704207598        -2.673651104        0.1247566549
                   1                   5          1.31850738       -0.5968753625       -0.7216320174       -0.1704207598        -2.673651104       -0.1247566549
                   1                   6          1.20489354       -0.3696476828       -0.8352458573       -0.1704207598          1.40662769       -0.4655981746
                   1                   7          1.20489354       -0.3696476828       -0.8352458573        0.1704207598          1.40662769        0.4655981746
                   1                   8          1.31850738       -0.5968753625       -0.7216320174        0.1704207598        -2.673651104        0.1247566549
                   2                   1       -0.6410614417       0.06728359933        0.5737778424       -0.1145556914        -1.710077379        -0.506494243
                   2                   2       -0.7174319026        0.2200245212        0.4974073814       -0.1145556914        0.7196011888       -0.2773828603
                   2                   3       -0.7174319026        0.2200245212        0.4974073814        0.1145556914        0.7196011888        0.2773828603
                   2                   4       -0.6410614417       0.06728359933        0.5737778424        0.1145556914        -1.710077379         0.506494243
                   2                   5        0.6410614417      -0.06728359933       -0.5737778424        0.1145556914        -1.710077379        -0.506494243
                   2                   6        0.7174319026       -0.2200245212       -0.4974073814        0.1145556914        0.7196011888       -0.2773828603
                   2                   7        0.7174319026       -0.2200245212       -0.4974073814       -0.1145556914        0.7196011888        0.2773828603
                   2                   8        0.6410614417      -0.06728359933       -0.5737778424       -0.1145556914        -1.710077379         0.506494243
                   3                   1        -0.214848254       0.02167818136        0.1931700726      -0.03009406228       -0.9032564219       -0.1714918913
                   3                   2       -0.2349109622       0.06180359774        0.1731073644      -0.03009406228      -0.08721976862       -0.1113037667
                   3                   3       -0.2349109622       0.06180359774        0.1731073644       0.03009406228      -0.08721976862        0.1113037667
                   3                   4        -0.214848254       0.02167818136        0.1931700726       0.03009406228       -0.9032564219        0.1714918913
                   3                   5         0.214848254      -0.02167818136       -0.1931700726       0.03009406228       -0.9032564219       -0.1714918913
                   3                   6        0.2349109622      -0.06180359774       -0.1731073644       0.03009406228      -0.08721976862       -0.1113037667
                   3                   7        0.2349109622      -0.06180359774       -0.1731073644      -0.03009406228      -0.08721976862        0.1113037667
                   3                   8         0.214848254      -0.02167818136       -0.1931700726      -0.03009406228       -0.9032564219        0.1714918913

***** Plastic Strain Data ******
          Element No         Integral No          PStrain XX          PStrain YY          PStrain ZZ          PStrain XY          PStrain XZ          PStrain YZ     Equivalent Plastic Strain
----------------------------------------------------------------------------------------------------------------------------------------------------------------------------------------------
                   1                   1       -0.1363789458       0.06173741153       0.07464153428       0.01762735949       -0.2765473479      -0.01290412275                  0.2104913639
                   1                   2                   0                   0                   0                   0                   0                   0                             0
                   1                   3                   0                   0                   0                   0                   0                   0                             0
                   1                   4       -0.1363789458       0.06173741153       0.07464153428      -0.01762735949       -0.2765473479       0.01290412275                  0.2104913639
                   1                   5        0.1363789458      -0.06173741153      -0.07464153428      -0.01762735949       -0.2765473479      -0.01290412275                  0.2104913639
                   1                   6                   0                   0                   0                   0                   0                   0                             0
                   1                   7                   0                   0                   0                   0                   0                   0                             0
                   1                   8        0.1363789458      -0.06173741153      -0.07464153428       0.01762735949       -0.2765473479       0.01290412275                  0.2104913639
                   2                   1                   0                   0                   0                   0                   0                   0                             0
                   2                   2                   0                   0                   0                   0                   0                   0                             0
                   2                   3                   0                   0                   0                   0                   0                   0                             0
                   2                   4                   0                   0                   0                   0                   0                   0                             0
                   2                   5                   0                   0                   0                   0                   0                   0                             0
                   2                   6                   0                   0                   0                   0                   0                   0                             0
                   2                   7                   0                   0                   0                   0                   0                   0                             0
                   2                   8                   0                   0                   0                   0                   0                   0                             0
                   3                   1                   0                   0                   0                   0                   0                   0                             0
                   3                   2                   0                   0                   0                   0                   0                   0                             0
                   3                   3                   0                   0                   0                   0                   0                   0                             0
                   3                   4                   0                   0                   0                   0                   0                   0                             0
                   3                   5                   0                   0                   0                   0                   0                   0                             0
                   3                   6                   0                   0                   0                   0                   0                   0                             0
                   3                   7                   0                   0                   0                   0                   0                   0                             0
                   3                   8                   0                   0                   0                   0                   0                   0                             0

***** Reaction Force Data ******
              NodeNo           Magnitude             X Force             Y Force             Z Force
----------------------------------------------------------------------------------------------------
                   1         61739.87881         59999.99855        -10574.15878         9999.998745
                   2      0.001647096234     -0.001064812423    -6.247008514e-05      0.001255068921
                   3     1.331167528e-10    -3.637978807e-12    -3.865352483e-11    -1.273292582e-10
                   4     6.733061723e-11    -5.854872143e-11     1.899991275e-11     2.728484105e-11
                   5         61739.87881        -59999.99855         10574.15878         9999.998745
                   6      0.001647096189      0.001064812372     6.247007559e-05      0.001255068906
                   7     7.372273675e-11     6.548361853e-11    -3.205968824e-11    -1.091393642e-11
                   8     1.416237896e-10     4.638422979e-11    -1.654143489e-11     1.327862265e-10
                   9         61739.87881         59999.99855         10574.15878         9999.998745
                  10      0.001647096242     -0.001064812415     6.247010742e-05      0.001255068937
                  11     1.419265316e-10     1.818989404e-11     4.115463526e-11    -1.346052159e-10
                  12     1.292895283e-10    -4.547473509e-13     3.763034329e-11    -1.236912794e-10
                  13         61739.87881        -59999.99855        -10574.15878         9999.998745
                  14      0.001647096149      0.001064812357    -6.247007468e-05      0.001255068866
                  15      7.26002401e-11     1.091393642e-11     1.091393642e-11     7.094058674e-11
                  16     9.100809576e-11     1.364242053e-12    -3.975486607e-11     8.185452316e-11

