*********************************
*          Input Data           *
*********************************

***** Node Data ******
                  No                   X                   Y                   Z
--------------------------------------------------------------------------------
                   1                   0                   0                   0
                   2                   1                   0                   0
                   3                   2                   0                   0
                   4                   3                   0                   0
                   5                   0                   0                   1
                   6                   1                   0                   1
                   7                   2                   0                   1
                   8                   3                   0                   1
                   9                   0                   1                   0
                  10                   1                   1                   0
                  11                   2                   1                   0
                  12                   3                   1                   0
                  13                   0                   1                   1
                  14                   1                   1                   1
                  15                   2                   1                   1
                  16                   3                   1                   1

***** Element Data ******
                  No                Type                             Node No               Young             Poisson           Thickness                Area             Density
--------------------------------------------------------------------------------------------------------------------------------------------------------------------------------
                   1                C3D8                  1 2 10 9 5 6 14 13              210000                 0.3                None                None                7850
                   2                C3D8                 2 3 11 10 6 7 15 14              210000                 0.3                None                None                7850
                   3                C3D8                 3 4 12 11 7 8 16 15              210000                 0.3                None                None                7850

***** SPC Constraint Data ******
              NodeNo      X Displacement      Y Displacement      Z Displacement
--------------------------------------------------------------------------------
                   1                   0                   0                   0
                   5                   0                   0                   0
                   9                   0                   0                   0
                  13                   0                   0                   0

***** Nodal Force Data ******
              NodeNo             X Force             Y Force             Z Force
--------------------------------------------------------------------------------
                   4                   0                   0              -10000
                   8                   0                   0              -10000
                  12                   0                   0              -10000
                  16                   0                   0              -10000

**********************************
*          Result Data           *
**********************************

*Increment 1

***** Displacement Data ******
              NodeNo           Magnitude      X Displacement      Y Displacement      Z Displacement
----------------------------------------------------------------------------------------------------
                   1                   0                   0                   0                   0
                   2          5.48752457        -3.533625136        0.5112622849        -4.167136928
                   3         14.93942623          -5.6377885        0.1675952045        -13.83378866
                   4         27.06554581        -6.344496972       0.07731301879        -26.31131223
                   5                   0                   0                   0                   0
                   6          5.48752457         3.533625136       -0.5112622849        -4.167136928
                   7         14.93942623           5.6377885       -0.1675952045        -13.83378866
                   8         27.06554581         6.344496972      -0.07731301879        -26.31131223
                   9                   0                   0                   0                   0
                  10          5.48752457        -3.533625136       -0.5112622849        -4.167136928
                  11         14.93942623          -5.6377885       -0.1675952045        -13.83378866
                  12         27.06554581        -6.344496972      -0.07731301879        -26.31131223
                  13                   0                   0                   0                   0
                  14          5.48752457         3.533625136        0.5112622849        -4.167136928
                  15         14.93942623           5.6377885        0.1675952045        -13.83378866
                  16         27.06554581         6.344496972       0.07731301879        -26.31131223

***** Stress Data ******
          Element No         Integral No           Stress XX           Stress YY           Stress ZZ           Stress XY           Stress XZ           Stress YZ               Mises
------------------------------------------------------------------------------------------------------------------------------------------------------------------------------------
                   1                   1        -190959.2083         86445.36119         104513.8471         12341.00536        -193612.2317        -9034.242942         442098.2793
                   1                   2        -194636.6513         59712.31886         134924.3325         13764.75382         113612.2317         -37606.0068         364711.6697
                   1                   3        -194636.6513         59712.31886         134924.3325        -13764.75382         113612.2317          37606.0068         364711.6697
                   1                   4        -190959.2083         86445.36119         104513.8471        -12341.00536        -193612.2317         9034.242942         442098.2793
                   1                   5         190959.2083        -86445.36119        -104513.8471        -12341.00536        -193612.2317        -9034.242942         442098.2793
                   1                   6         194636.6513        -59712.31886        -134924.3325        -13764.75382         113612.2317         -37606.0068         364711.6697
                   1                   7         194636.6513        -59712.31886        -134924.3325         13764.75382         113612.2317          37606.0068         364711.6697
                   1                   8         190959.2083        -86445.36119        -104513.8471         12341.00536        -193612.2317         9034.242942         442098.2793
                   2                   1        -103556.0789         10868.88866         92687.19021        -9252.575241        -138121.6345        -40909.15077         302753.4116
                   2                   2        -115892.8459         35542.42264         80350.42322        -9252.575241         58121.63454        -22404.00029         208861.0313
                   2                   3        -115892.8459         35542.42264         80350.42322         9252.575241         58121.63454         22404.00029         208861.0313
                   2                   4        -103556.0789         10868.88866         92687.19021         9252.575241        -138121.6345         40909.15077         302753.4116
                   2                   5         103556.0789        -10868.88866        -92687.19021         9252.575241        -138121.6345        -40909.15077         302753.4116
                   2                   6         115892.8459        -35542.42264        -80350.42322         9252.575241         58121.63454        -22404.00029         208861.0313
                   2                   7         115892.8459        -35542.42264        -80350.42322        -9252.575241         58121.63454         22404.00029         208861.0313
                   2                   8         103556.0789        -10868.88866        -92687.19021        -9252.575241        -138121.6345         40909.15077         302753.4116
                   3                   1        -34706.25644         3501.860141          31204.3963         -2430.67423        -72955.32637        -13851.26808         140877.5666
                   3                   2        -37947.15542         9983.658087         27963.49733         -2430.67423        -7044.673627        -8989.919621         62381.79702
                   3                   3        -37947.15542         9983.658087         27963.49733          2430.67423        -7044.673627         8989.919621         62381.79702
                   3                   4        -34706.25644         3501.860141          31204.3963          2430.67423        -72955.32637         13851.26808         140877.5666
                   3                   5         34706.25644        -3501.860141         -31204.3963          2430.67423        -72955.32637        -13851.26808         140877.5666
                   3                   6         37947.15542        -9983.658087        -27963.49733          2430.67423        -7044.673627        -8989.919621         62381.79702
                   3                   7         37947.15542        -9983.658087        -27963.49733         -2430.67423        -7044.673627         8989.919621         62381.79702
                   3                   8         34706.25644        -3501.860141         -31204.3963         -2430.67423        -72955.32637         13851.26808         140877.5666

***** Strain Data ******
          Element No         Integral No           Strain XX           Strain YY           Strain ZZ           Strain XY           Strain XZ           Strain YZ
----------------------------------------------------------------------------------------------------------------------------------------------------------------
                   1                   1        -1.318507397        0.5968753703        0.7216320265        0.1704207616        -2.673651216       -0.1247566562
                   1                   2        -1.204893556        0.3696476882        0.8352458676        0.1704207616         1.406627631       -0.4655981794
                   1                   3        -1.204893556        0.3696476882        0.8352458676       -0.1704207616         1.406627631        0.4655981794
                   1                   4        -1.318507397        0.5968753703        0.7216320265       -0.1704207616        -2.673651216        0.1247566562
                   1                   5         1.318507397       -0.5968753703       -0.7216320265       -0.1704207616        -2.673651216       -0.1247566562
                   1                   6         1.204893556       -0.3696476882       -0.8352458676       -0.1704207616         1.406627631       -0.4655981794
                   1                   7         1.204893556       -0.3696476882       -0.8352458676        0.1704207616         1.406627631        0.4655981794
                   1                   8         1.318507397       -0.5968753703       -0.7216320265        0.1704207616        -2.673651216        0.1247566562
                   2                   1       -0.6410614406       0.06728359648        0.5737778442       -0.1145556935         -1.71007738       -0.5064942477
                   2                   2       -0.7174319029        0.2200245211        0.4974073818       -0.1145556935        0.7196011896       -0.2773828607
                   2                   3       -0.7174319029        0.2200245211        0.4974073818        0.1145556935        0.7196011896        0.2773828607
                   2                   4       -0.6410614406       0.06728359648        0.5737778442        0.1145556935         -1.71007738        0.5064942477
                   2                   5        0.6410614406      -0.06728359648       -0.5737778442        0.1145556935         -1.71007738       -0.5064942477
                   2                   6        0.7174319029       -0.2200245211       -0.4974073818        0.1145556935        0.7196011896       -0.2773828607
                   2                   7        0.7174319029       -0.2200245211       -0.4974073818       -0.1145556935        0.7196011896        0.2773828607
                   2                   8        0.6410614406      -0.06728359648       -0.5737778442       -0.1145556935         -1.71007738        0.5064942477
                   3                   1       -0.2148482542       0.02167818183        0.1931700723      -0.03009406189       -0.9032564218       -0.1714918905
                   3                   2       -0.2349109621       0.06180359768        0.1731073644      -0.03009406189      -0.08721976872       -0.1113037667
                   3                   3       -0.2349109621       0.06180359768        0.1731073644       0.03009406189      -0.08721976872        0.1113037667
                   3                   4       -0.2148482542       0.02167818183        0.1931700723       0.03009406189       -0.9032564218        0.1714918905
                   3                   5        0.2148482542      -0.02167818183       -0.1931700723       0.03009406189       -0.9032564218       -0.1714918905
                   3                   6        0.2349109621      -0.06180359768       -0.1731073644       0.03009406189      -0.08721976872       -0.1113037667
                   3                   7        0.2349109621      -0.06180359768       -0.1731073644      -0.03009406189      -0.08721976872        0.1113037667
                   3                   8        0.2148482542      -0.02167818183       -0.1931700723      -0.03009406189       -0.9032564218        0.1714918905

***** Plastic Strain Data ******
          Element No         Integral No          PStrain XX          PStrain YY          PStrain ZZ          PStrain XY          PStrain XZ          PStrain YZ     Equivalent Plastic Strain
----------------------------------------------------------------------------------------------------------------------------------------------------------------------------------------------
                   1                   1       -0.1363789648       0.06173742013       0.07464154464        0.0176273619       -0.2765473943      -0.01290412451                  0.2104913966
                   1                   2                   0                   0                   0                   0                   0                   0                             0
                   1                   3                   0                   0                   0                   0                   0                   0                             0
                   1                   4       -0.1363789648       0.06173742013       0.07464154464       -0.0176273619       -0.2765473943       0.01290412451                  0.2104913966
                   1                   5        0.1363789648      -0.06173742013      -0.07464154464       -0.0176273619       -0.2765473943      -0.01290412451                  0.2104913966
                   1                   6                   0                   0                   0                   0                   0                   0                             0
                   1                   7                   0                   0                   0                   0                   0                   0                             0
                   1                   8        0.1363789648      -0.06173742013      -0.07464154464        0.0176273619       -0.2765473943       0.01290412451                  0.2104913966
                   2                   1                   0                   0                   0                   0                   0                   0                             0
                   2                   2                   0                   0                   0                   0                   0                   0                             0
                   2                   3                   0                   0                   0                   0                   0                   0                             0
                   2                   4                   0                   0                   0                   0                   0                   0                             0
                   2                   5                   0                   0                   0                   0                   0                   0                             0
                   2                   6                   0                   0                   0                   0                   0                   0                             0
                   2                   7                   0                   0                   0                   0                   0                   0                             0
                   2                   8                   0                   0                   0                   0                   0                   0                             0
                   3                   1                   0                   0                   0                   0                   0                   0                             0
                   3                   2                   0                   0                   0                   0                   0                   0                             0
                   3                   3                   0                   0                   0                   0                   0                   0                             0
                   3                   4                   0                   0                   0                   0                   0                   0                             0
                   3                   5                   0                   0                   0                   0                   0                   0                             0
                   3                   6                   0                   0                   0                   0                   0                   0                             0
                   3                   7                   0                   0                   0                   0                   0                   0                             0
                   3                   8                   0                   0                   0                   0                   0                   0                             0

***** Reaction Force Data ******
              NodeNo           Magnitude             X Force             Y Force             Z Force
----------------------------------------------------------------------------------------------------
                   1         61739.88042               60000        -10574.15879               10000
                   2     3.019536107e-11     7.275957614e-12     1.955413609e-11     2.182787284e-11
                   3     1.099398159e-10    -1.455191523e-11     2.728484105e-11     1.055013854e-10
                   4     6.576123345e-11     2.785327524e-11     5.954348126e-11     1.818989404e-12
                   5         61739.88042              -60000         10574.15879               10000
                   6     6.294761258e-11     4.365574569e-11     1.227817847e-11    -4.365574569e-11
                   7     5.606501875e-11    -4.729372449e-11     1.273292582e-11    -2.728484105e-11
                   8     5.677420539e-11    -1.955413609e-11    -4.578737389e-11     2.728484105e-11
                   9         61739.88042               60000         10574.15879               10000
                  10     5.354637988e-11    -3.637978807e-11    -3.137756721e-11     2.364686225e-11
                  11     1.224868975e-10    -2.182787284e-11    -4.251887731e-11      1.12777343e-10
                  12     7.288487904e-11     2.273736754e-11     3.115019354e-11    -6.184563972e-11
                  13         61739.88042              -60000        -10574.15879               10000
                  14      7.38932962e-11     6.548361853e-11    -1.000444172e-11    -3.274180926e-11
                  15     4.152978782e-11     1.091393642e-11    -2.046363079e-12    -4.001776688e-11
                  16     5.582607304e-11    -1.568878361e-11    -3.105782298e-11    -4.365574569e-11

