*********************************
*          Input Data           *
*********************************

***** Node Data ******
                  No                   X                   Y                   Z
--------------------------------------------------------------------------------
                   1                   0                   0                   0
                   2                   1                   0                   0
                   3                   2                   0                   0
                   4                   3                   0                   0
                   5                   0                   0                   1
                   6                   1                   0                   1
                   7                   2                   0                   1
                   8                   3                   0                   1
                   9                   0                   1                   0
                  10                   1                   1                   0
                  11                   2                   1                   0
                  12                   3                   1                   0
                  13                   0                   1                   1
                  14                   1                   1                   1
                  15                   2                   1                   1
                  16                   3                   1                   1

***** Element Data ******
                  No                Type                             Node No               Young             Poisson           Thickness                Area             Density
--------------------------------------------------------------------------------------------------------------------------------------------------------------------------------
                   1                C3D8                  1 2 10 9 5 6 14 13              210000                 0.3                None                None                7850
                   2                C3D8                 2 3 11 10 6 7 15 14              210000                 0.3                None                None                7850
                   3                C3D8                 3 4 12 11 7 8 16 15              210000                 0.3                None                None                7850

***** SPC Constraint Data ******
              NodeNo      X Displacement      Y Displacement      Z Displacement
--------------------------------------------------------------------------------
                   1                   0                   0                   0
                   5                   0                   0                   0
                   9                   0                   0                   0
                  13                   0                   0                   0

***** Nodal Force Data ******
              NodeNo             X Force             Y Force             Z Force
--------------------------------------------------------------------------------
                   4                   0                   0              -10000
                   8                   0                   0              -10000
                  12                   0                   0              -10000
                  16                   0                   0              -10000

**********************************
*          Result Data           *
**********************************

*Increment 1

***** Displacement Data ******
              NodeNo           Magnitude      X Displacement      Y Displacement      Z Displacement
----------------------------------------------------------------------------------------------------
                   1                   0                   0                   0                   0
                   2        0.5088746913       -0.3325046722        0.0494806384       -0.3820284817
                   3         1.414848387       -0.5425293242       0.01703421494        -1.306586288
                   4          2.58568096       -0.6132537703      0.007644203625        -2.511893192
                   5                   0                   0                   0                   0
                   6        0.5088746913        0.3325046722       -0.0494806384       -0.3820284817
                   7         1.414848387        0.5425293242      -0.01703421494        -1.306586288
                   8          2.58568096        0.6132537703     -0.007644203625        -2.511893192
                   9                   0                   0                   0                   0
                  10        0.5088746913       -0.3325046722       -0.0494806384       -0.3820284817
                  11         1.414848387       -0.5425293242      -0.01703421494        -1.306586288
                  12          2.58568096       -0.6132537703     -0.007644203625        -2.511893192
                  13                   0                   0                   0                   0
                  14        0.5088746913        0.3325046722        0.0494806384       -0.3820284817
                  15         1.414848387        0.5425293242       0.01703421494        -1.306586288
                  16          2.58568096        0.6132537703      0.007644203625        -2.511893192

***** Stress Data ******
          Element No         Integral No           Stress XX           Stress YY           Stress ZZ           Stress XY           Stress XZ           Stress YZ               Mises
------------------------------------------------------------------------------------------------------------------------------------------------------------------------------------
                   1                   1        -190894.4894         86420.02238          104474.467         12331.41499         -193647.391        -9027.222302         442079.9255
                   1                   2        -194635.3681         59711.96544         134923.4027         13764.64834         113640.8656        -37605.71862         364736.7006
                   1                   3        -194635.3681         59711.96544         134923.4027        -13764.64834         113640.8656         37605.71862         364736.7006
                   1                   4        -190894.4894         86420.02238          104474.467        -12331.41499         -193647.391         9027.222302         442079.9255
                   1                   5         190894.4894        -86420.02238         -104474.467        -12331.41499         -193647.391        -9027.222302         442079.9255
                   1                   6         194635.3681        -59711.96544        -134923.4027        -13764.64834         113640.8656        -37605.71862         364736.7006
                   1                   7         194635.3681        -59711.96544        -134923.4027         13764.64834         113640.8656         37605.71862         364736.7006
                   1                   8         190894.4894        -86420.02238         -104474.467         12331.41499         -193647.391         9027.222302         442079.9255
                   2                   1        -103556.2044         10869.22672          92686.9777        -9252.452154        -138121.5911        -40908.87549         302753.2142
                   2                   2        -115892.8073         35542.43247         80350.37482        -9252.452154         58121.59106        -22403.97118         208860.9118
                   2                   3        -115892.8073         35542.43247         80350.37482         9252.452154         58121.59106         22403.97118         208860.9118
                   2                   4        -103556.2044         10869.22672          92686.9777         9252.452154        -138121.5911         40908.87549         302753.2142
                   2                   5         103556.2044        -10869.22672         -92686.9777         9252.452154        -138121.5911        -40908.87549         302753.2142
                   2                   6         115892.8073        -35542.43247        -80350.37482         9252.452154         58121.59106        -22403.97118         208860.9118
                   2                   7         115892.8073        -35542.43247        -80350.37482        -9252.452154         58121.59106         22403.97118         208860.9118
                   2                   8         103556.2044        -10869.22672         -92686.9777        -9252.452154        -138121.5911         40908.87549         302753.2142
                   3                   1        -34706.23503         3501.805418         31204.42961         -2430.69742        -72955.33232         -13851.3121         140877.5911
                   3                   2        -37947.16493         9983.665205         27963.49972         -2430.69742        -7044.667677        -8989.917258         62381.80869
                   3                   3        -37947.16493         9983.665205         27963.49972          2430.69742        -7044.667677         8989.917258         62381.80869
                   3                   4        -34706.23503         3501.805418         31204.42961          2430.69742        -72955.33232          13851.3121         140877.5911
                   3                   5         34706.23503        -3501.805418        -31204.42961          2430.69742        -72955.33232         -13851.3121         140877.5911
                   3                   6         37947.16493        -9983.665205        -27963.49972          2430.69742        -7044.667677        -8989.917258         62381.80869
                   3                   7         37947.16493        -9983.665205        -27963.49972         -2430.69742        -7044.667677         8989.917258         62381.80869
                   3                   8         34706.23503        -3501.805418        -31204.42961         -2430.69742        -72955.33232          13851.3121         140877.5911

***** Strain Data ******
          Element No         Integral No           Strain XX           Strain YY           Strain ZZ           Strain XY           Strain XZ           Strain YZ
----------------------------------------------------------------------------------------------------------------------------------------------------------------
                   1                   1       -0.1239564034       0.05594114482       0.06801525859       0.01649354613       -0.2414954715      -0.01207411377
                   1                   2        -0.112960706       0.03394974998       0.07901095601       0.01649354613        0.1424478525      -0.04506120603
                   1                   3        -0.112960706       0.03394974998       0.07901095601      -0.01649354613        0.1424478525       0.04506120603
                   1                   4       -0.1239564034       0.05594114482       0.06801525859      -0.01649354613       -0.2414954715       0.01207411377
                   1                   5        0.1239564034      -0.05594114482      -0.06801525859      -0.01649354613       -0.2414954715      -0.01207411377
                   1                   6         0.112960706      -0.03394974998      -0.07901095601      -0.01649354613        0.1424478525      -0.04506120603
                   1                   7         0.112960706      -0.03394974998      -0.07901095601       0.01649354613        0.1424478525       0.04506120603
                   1                   8        0.1239564034      -0.05594114482      -0.06801525859       0.01649354613       -0.2414954715       0.01207411377
                   2                   1      -0.06443257858      0.007607367807       0.05682521077      -0.01081547449       -0.1707815989      -0.04921784297
                   2                   2       -0.0716428949       0.02202800046       0.04961489445      -0.01081547449       0.07173397983      -0.02758689399
                   2                   3       -0.0716428949       0.02202800046       0.04961489445       0.01081547449       0.07173397983       0.02758689399
                   2                   4      -0.06443257858      0.007607367807       0.05682521077       0.01081547449       -0.1707815989       0.04921784297
                   2                   5       0.06443257858     -0.007607367807      -0.05682521077       0.01081547449       -0.1707815989      -0.04921784297
                   2                   6        0.0716428949      -0.02202800046      -0.04961489445       0.01081547449       0.07173397983      -0.02758689399
                   2                   7        0.0716428949      -0.02202800046      -0.04961489445      -0.01081547449       0.07173397983       0.02758689399
                   2                   8       0.06443257858     -0.007607367807      -0.05682521077      -0.01081547449       -0.1707815989       0.04921784297
                   3                   1      -0.02142915355      0.002025529086       0.01940362446     -0.003130003772      -0.09035658753      -0.01737809537
                   3                   2      -0.02351582273      0.006198867449       0.01731695528     -0.003130003772     -0.008691031518      -0.01111808783
                   3                   3      -0.02351582273      0.006198867449       0.01731695528      0.003130003772     -0.008691031518       0.01111808783
                   3                   4      -0.02142915355      0.002025529086       0.01940362446      0.003130003772      -0.09035658753       0.01737809537
                   3                   5       0.02142915355     -0.002025529086      -0.01940362446      0.003130003772      -0.09035658753      -0.01737809537
                   3                   6       0.02351582273     -0.006198867449      -0.01731695528      0.003130003772     -0.008691031518      -0.01111808783
                   3                   7       0.02351582273     -0.006198867449      -0.01731695528     -0.003130003772     -0.008691031518       0.01111808783
                   3                   8       0.02142915355     -0.002025529086      -0.01940362446     -0.003130003772      -0.09035658753       0.01737809537

***** Plastic Strain Data ******
          Element No         Integral No          PStrain XX          PStrain YY          PStrain ZZ          PStrain XY          PStrain XZ          PStrain YZ     Equivalent Plastic Strain
----------------------------------------------------------------------------------------------------------------------------------------------------------------------------------------------
                   1                   1       -0.1367707914       0.06189035036       0.07488044106       0.01774479389       -0.2757301762       -0.0129900907                  0.2103996277
                   1                   2                   0                   0                   0                   0                   0                   0                             0
                   1                   3                   0                   0                   0                   0                   0                   0                             0
                   1                   4       -0.1367707914       0.06189035036       0.07488044106      -0.01774479389       -0.2757301762        0.0129900907                  0.2103996277
                   1                   5        0.1367707914      -0.06189035036      -0.07488044106      -0.01774479389       -0.2757301762       -0.0129900907                  0.2103996277
                   1                   6                   0                   0                   0                   0                   0                   0                             0
                   1                   7                   0                   0                   0                   0                   0                   0                             0
                   1                   8        0.1367707914      -0.06189035036      -0.07488044106       0.01774479389       -0.2757301762        0.0129900907                  0.2103996277
                   2                   1                   0                   0                   0                   0                   0                   0                             0
                   2                   2                   0                   0                   0                   0                   0                   0                             0
                   2                   3                   0                   0                   0                   0                   0                   0                             0
                   2                   4                   0                   0                   0                   0                   0                   0                             0
                   2                   5                   0                   0                   0                   0                   0                   0                             0
                   2                   6                   0                   0                   0                   0                   0                   0                             0
                   2                   7                   0                   0                   0                   0                   0                   0                             0
                   2                   8                   0                   0                   0                   0                   0                   0                             0
                   3                   1                   0                   0                   0                   0                   0                   0                             0
                   3                   2                   0                   0                   0                   0                   0                   0                             0
                   3                   3                   0                   0                   0                   0                   0                   0                             0
                   3                   4                   0                   0                   0                   0                   0                   0                             0
                   3                   5                   0                   0                   0                   0                   0                   0                             0
                   3                   6                   0                   0                   0                   0                   0                   0                             0
                   3                   7                   0                   0                   0                   0                   0                   0                             0
                   3                   8                   0                   0                   0                   0                   0                   0                             0

***** Reaction Force Data ******
              NodeNo           Magnitude             X Force             Y Force             Z Force
----------------------------------------------------------------------------------------------------
                   1         6178.764381                6000        -1084.955884                1000
                   2     2.984144146e-12    -1.818989404e-12    -1.364242053e-12     1.932676241e-12
                   3     3.492713563e-11    -4.774847184e-12     8.043343769e-12     3.365130397e-11
                   4      4.29003443e-11    -3.858247055e-12     8.106404437e-12     4.195044312e-11
                   5         6178.764381               -6000         1084.955884                1000
                   6     1.102820926e-11    -4.092726158e-12     -3.97903932e-12     9.436007531e-12
                   7     3.302974396e-11     6.366462912e-12     1.006128514e-11    -3.080913302e-11
                   8     6.640045864e-12    -3.240074875e-12     1.131539307e-12     5.684341886e-12
                   9         6178.764381                6000         1084.955884                1000
                  10     8.547708029e-12     2.728484105e-12     6.821210263e-13    -8.071765478e-12
                  11     1.355858535e-11     8.640199667e-12    -5.144329407e-12     9.094947018e-12
                  12     3.142851244e-11    -2.273736754e-11    -4.860112313e-12     2.114575182e-11
                  13         6178.764381               -6000        -1084.955884                1000
                  14     1.274117053e-11    -1.273292582e-11    -5.684341886e-14     4.547473509e-13
                  15     3.614616868e-11     7.730704965e-12     1.662670002e-11    -3.115019354e-11
                  16     2.074144867e-11    -8.128608897e-12    -1.357092216e-11    -1.341504685e-11

*Increment 2

***** Displacement Data ******
              NodeNo           Magnitude      X Displacement      Y Displacement      Z Displacement
----------------------------------------------------------------------------------------------------
                   1                   0                   0                   0                   0
                   2         1.017749383       -0.6650093444        0.0989612768       -0.7640569634
                   3         2.829696775        -1.085058648       0.03406842988        -2.613172575
                   4          5.17136192        -1.226507541       0.01528840725        -5.023786383
                   5                   0                   0                   0                   0
                   6         1.017749383        0.6650093444       -0.0989612768       -0.7640569634
                   7         2.829696775         1.085058648      -0.03406842988        -2.613172575
                   8          5.17136192         1.226507541      -0.01528840725        -5.023786383
                   9                   0                   0                   0                   0
                  10         1.017749383       -0.6650093444       -0.0989612768       -0.7640569634
                  11         2.829696775        -1.085058648      -0.03406842988        -2.613172575
                  12          5.17136192        -1.226507541      -0.01528840725        -5.023786383
                  13                   0                   0                   0                   0
                  14         1.017749383        0.6650093444        0.0989612768       -0.7640569634
                  15         2.829696775         1.085058648       0.03406842988        -2.613172575
                  16          5.17136192         1.226507541       0.01528840725        -5.023786383

***** Stress Data ******
          Element No         Integral No           Stress XX           Stress YY           Stress ZZ           Stress XY           Stress XZ           Stress YZ               Mises
------------------------------------------------------------------------------------------------------------------------------------------------------------------------------------
                   1                   1        -190894.4894         86420.02238          104474.467         12331.41499         -193647.391        -9027.222302         442079.9255
                   1                   2        -194635.3681         59711.96544         134923.4027         13764.64834         113640.8656        -37605.71862         364736.7006
                   1                   3        -194635.3681         59711.96544         134923.4027        -13764.64834         113640.8656         37605.71862         364736.7006
                   1                   4        -190894.4894         86420.02238          104474.467        -12331.41499         -193647.391         9027.222302         442079.9255
                   1                   5         190894.4894        -86420.02238         -104474.467        -12331.41499         -193647.391        -9027.222302         442079.9255
                   1                   6         194635.3681        -59711.96544        -134923.4027        -13764.64834         113640.8656        -37605.71862         364736.7006
                   1                   7         194635.3681        -59711.96544        -134923.4027         13764.64834         113640.8656         37605.71862         364736.7006
                   1                   8         190894.4894        -86420.02238         -104474.467         12331.41499         -193647.391         9027.222302         442079.9255
                   2                   1        -103556.2044         10869.22672          92686.9777        -9252.452154        -138121.5911        -40908.87549         302753.2142
                   2                   2        -115892.8073         35542.43247         80350.37482        -9252.452154         58121.59106        -22403.97118         208860.9118
                   2                   3        -115892.8073         35542.43247         80350.37482         9252.452154         58121.59106         22403.97118         208860.9118
                   2                   4        -103556.2044         10869.22672          92686.9777         9252.452154        -138121.5911         40908.87549         302753.2142
                   2                   5         103556.2044        -10869.22672         -92686.9777         9252.452154        -138121.5911        -40908.87549         302753.2142
                   2                   6         115892.8073        -35542.43247        -80350.37482         9252.452154         58121.59106        -22403.97118         208860.9118
                   2                   7         115892.8073        -35542.43247        -80350.37482        -9252.452154         58121.59106         22403.97118         208860.9118
                   2                   8         103556.2044        -10869.22672         -92686.9777        -9252.452154        -138121.5911         40908.87549         302753.2142
                   3                   1        -34706.23503         3501.805418         31204.42961         -2430.69742        -72955.33232         -13851.3121         140877.5911
                   3                   2        -37947.16493         9983.665205         27963.49972         -2430.69742        -7044.667677        -8989.917258         62381.80869
                   3                   3        -37947.16493         9983.665205         27963.49972          2430.69742        -7044.667677         8989.917258         62381.80869
                   3                   4        -34706.23503         3501.805418         31204.42961          2430.69742        -72955.33232          13851.3121         140877.5911
                   3                   5         34706.23503        -3501.805418        -31204.42961          2430.69742        -72955.33232         -13851.3121         140877.5911
                   3                   6         37947.16493        -9983.665205        -27963.49972          2430.69742        -7044.667677        -8989.917258         62381.80869
                   3                   7         37947.16493        -9983.665205        -27963.49972         -2430.69742        -7044.667677         8989.917258         62381.80869
                   3                   8         34706.23503        -3501.805418        -31204.42961         -2430.69742        -72955.33232          13851.3121         140877.5911

***** Strain Data ******
          Element No         Integral No           Strain XX           Strain YY           Strain ZZ           Strain XY           Strain XZ           Strain YZ
----------------------------------------------------------------------------------------------------------------------------------------------------------------
                   1                   1       -0.2479128068        0.1118822896        0.1360305172       0.03298709227        -0.482990943      -0.02414822753
                   1                   2        -0.225921412       0.06789949996         0.158021912       0.03298709227        0.2848957049      -0.09012241206
                   1                   3        -0.225921412       0.06789949996         0.158021912      -0.03298709227        0.2848957049       0.09012241206
                   1                   4       -0.2479128068        0.1118822896        0.1360305172      -0.03298709227        -0.482990943       0.02414822753
                   1                   5        0.2479128068       -0.1118822896       -0.1360305172      -0.03298709227        -0.482990943      -0.02414822753
                   1                   6         0.225921412      -0.06789949996        -0.158021912      -0.03298709227        0.2848957049      -0.09012241206
                   1                   7         0.225921412      -0.06789949996        -0.158021912       0.03298709227        0.2848957049       0.09012241206
                   1                   8        0.2479128068       -0.1118822896       -0.1360305172       0.03298709227        -0.482990943       0.02414822753
                   2                   1       -0.1288651572       0.01521473561        0.1136504215      -0.02163094897       -0.3415631978      -0.09843568593
                   2                   2       -0.1432857898       0.04405600091        0.0992297889      -0.02163094897        0.1434679597      -0.05517378799
                   2                   3       -0.1432857898       0.04405600091        0.0992297889       0.02163094897        0.1434679597       0.05517378799
                   2                   4       -0.1288651572       0.01521473561        0.1136504215       0.02163094897       -0.3415631978       0.09843568593
                   2                   5        0.1288651572      -0.01521473561       -0.1136504215       0.02163094897       -0.3415631978      -0.09843568593
                   2                   6        0.1432857898      -0.04405600091       -0.0992297889       0.02163094897        0.1434679597      -0.05517378799
                   2                   7        0.1432857898      -0.04405600091       -0.0992297889      -0.02163094897        0.1434679597       0.05517378799
                   2                   8        0.1288651572      -0.01521473561       -0.1136504215      -0.02163094897       -0.3415631978       0.09843568593
                   3                   1      -0.04285830709      0.004051058172       0.03880724892     -0.006260007544       -0.1807131751      -0.03475619075
                   3                   2      -0.04703164545        0.0123977349       0.03463391056     -0.006260007544      -0.01738206304      -0.02223617566
                   3                   3      -0.04703164545        0.0123977349       0.03463391056      0.006260007544      -0.01738206304       0.02223617566
                   3                   4      -0.04285830709      0.004051058172       0.03880724892      0.006260007544       -0.1807131751       0.03475619075
                   3                   5       0.04285830709     -0.004051058172      -0.03880724892      0.006260007544       -0.1807131751      -0.03475619075
                   3                   6       0.04703164545       -0.0123977349      -0.03463391056      0.006260007544      -0.01738206304      -0.02223617566
                   3                   7       0.04703164545       -0.0123977349      -0.03463391056     -0.006260007544      -0.01738206304       0.02223617566
                   3                   8       0.04285830709     -0.004051058172      -0.03880724892     -0.006260007544       -0.1807131751       0.03475619075

***** Plastic Strain Data ******
          Element No         Integral No          PStrain XX          PStrain YY          PStrain ZZ          PStrain XY          PStrain XZ          PStrain YZ     Equivalent Plastic Strain
----------------------------------------------------------------------------------------------------------------------------------------------------------------------------------------------
                   1                   1       -0.1367707914       0.06189035036       0.07488044106       0.01774479389       -0.2757301762       -0.0129900907                  0.2103996277
                   1                   2                   0                   0                   0                   0                   0                   0                             0
                   1                   3                   0                   0                   0                   0                   0                   0                             0
                   1                   4       -0.1367707914       0.06189035036       0.07488044106      -0.01774479389       -0.2757301762        0.0129900907                  0.2103996277
                   1                   5        0.1367707914      -0.06189035036      -0.07488044106      -0.01774479389       -0.2757301762       -0.0129900907                  0.2103996277
                   1                   6                   0                   0                   0                   0                   0                   0                             0
                   1                   7                   0                   0                   0                   0                   0                   0                             0
                   1                   8        0.1367707914      -0.06189035036      -0.07488044106       0.01774479389       -0.2757301762        0.0129900907                  0.2103996277
                   2                   1                   0                   0                   0                   0                   0                   0                             0
                   2                   2                   0                   0                   0                   0                   0                   0                             0
                   2                   3                   0                   0                   0                   0                   0                   0                             0
                   2                   4                   0                   0                   0                   0                   0                   0                             0
                   2                   5                   0                   0                   0                   0                   0                   0                             0
                   2                   6                   0                   0                   0                   0                   0                   0                             0
                   2                   7                   0                   0                   0                   0                   0                   0                             0
                   2                   8                   0                   0                   0                   0                   0                   0                             0
                   3                   1                   0                   0                   0                   0                   0                   0                             0
                   3                   2                   0                   0                   0                   0                   0                   0                             0
                   3                   3                   0                   0                   0                   0                   0                   0                             0
                   3                   4                   0                   0                   0                   0                   0                   0                             0
                   3                   5                   0                   0                   0                   0                   0                   0                             0
                   3                   6                   0                   0                   0                   0                   0                   0                             0
                   3                   7                   0                   0                   0                   0                   0                   0                             0
                   3                   8                   0                   0                   0                   0                   0                   0                             0

***** Reaction Force Data ******
              NodeNo           Magnitude             X Force             Y Force             Z Force
----------------------------------------------------------------------------------------------------
                   1         12357.52876               12000        -2169.911768                2000
                   2     5.968288291e-12    -3.637978807e-12    -2.728484105e-12     3.865352483e-12
                   3     6.985427126e-11    -9.549694369e-12     1.608668754e-11     6.730260793e-11
                   4      8.58006886e-11     -7.71649411e-12     1.621280887e-11     8.390088624e-11
                   5         12357.52876              -12000         2169.911768                2000
                   6     2.205641852e-11    -8.185452316e-12    -7.958078641e-12     1.887201506e-11
                   7     6.605948793e-11     1.273292582e-11     2.012257028e-11    -6.161826605e-11
                   8     1.328009173e-11     -6.48014975e-12     2.263078613e-12     1.136868377e-11
                   9         12357.52876               12000         2169.911768                2000
                  10     1.709541606e-11     5.456968211e-12     1.364242053e-12    -1.614353096e-11
                  11     2.711717069e-11     1.728039933e-11    -1.028865881e-11     1.818989404e-11
                  12     6.285702489e-11    -4.547473509e-11    -9.720224625e-12     4.229150363e-11
                  13         12357.52876              -12000        -2169.911768                2000
                  14     2.548234105e-11    -2.546585165e-11    -1.136868377e-13     9.094947018e-13
                  15     7.229233735e-11     1.546140993e-11     3.325340003e-11    -6.230038707e-11
                  16     4.148289734e-11    -1.625721779e-11    -2.714184433e-11     -2.68300937e-11

*Increment 3

***** Displacement Data ******
              NodeNo           Magnitude      X Displacement      Y Displacement      Z Displacement
----------------------------------------------------------------------------------------------------
                   1                   0                   0                   0                   0
                   2         1.526624074       -0.9975140166        0.1484419152        -1.146085445
                   3         4.244545162        -1.627587973       0.05110264482        -3.919758863
                   4          7.75704288        -1.839761311       0.02293261088        -7.535679575
                   5                   0                   0                   0                   0
                   6         1.526624074        0.9975140166       -0.1484419152        -1.146085445
                   7         4.244545162         1.627587973      -0.05110264482        -3.919758863
                   8          7.75704288         1.839761311      -0.02293261088        -7.535679575
                   9                   0                   0                   0                   0
                  10         1.526624074       -0.9975140166       -0.1484419152        -1.146085445
                  11         4.244545162        -1.627587973      -0.05110264482        -3.919758863
                  12          7.75704288        -1.839761311      -0.02293261088        -7.535679575
                  13                   0                   0                   0                   0
                  14         1.526624074        0.9975140166        0.1484419152        -1.146085445
                  15         4.244545162         1.627587973       0.05110264482        -3.919758863
                  16          7.75704288         1.839761311       0.02293261088        -7.535679575

***** Stress Data ******
          Element No         Integral No           Stress XX           Stress YY           Stress ZZ           Stress XY           Stress XZ           Stress YZ               Mises
------------------------------------------------------------------------------------------------------------------------------------------------------------------------------------
                   1                   1        -190894.4894         86420.02238          104474.467         12331.41499         -193647.391        -9027.222302         442079.9255
                   1                   2        -194635.3681         59711.96544         134923.4027         13764.64834         113640.8656        -37605.71862         364736.7006
                   1                   3        -194635.3681         59711.96544         134923.4027        -13764.64834         113640.8656         37605.71862         364736.7006
                   1                   4        -190894.4894         86420.02238          104474.467        -12331.41499         -193647.391         9027.222302         442079.9255
                   1                   5         190894.4894        -86420.02238         -104474.467        -12331.41499         -193647.391        -9027.222302         442079.9255
                   1                   6         194635.3681        -59711.96544        -134923.4027        -13764.64834         113640.8656        -37605.71862         364736.7006
                   1                   7         194635.3681        -59711.96544        -134923.4027         13764.64834         113640.8656         37605.71862         364736.7006
                   1                   8         190894.4894        -86420.02238         -104474.467         12331.41499         -193647.391         9027.222302         442079.9255
                   2                   1        -103556.2044         10869.22672          92686.9777        -9252.452154        -138121.5911        -40908.87549         302753.2142
                   2                   2        -115892.8073         35542.43247         80350.37482        -9252.452154         58121.59106        -22403.97118         208860.9118
                   2                   3        -115892.8073         35542.43247         80350.37482         9252.452154         58121.59106         22403.97118         208860.9118
                   2                   4        -103556.2044         10869.22672          92686.9777         9252.452154        -138121.5911         40908.87549         302753.2142
                   2                   5         103556.2044        -10869.22672         -92686.9777         9252.452154        -138121.5911        -40908.87549         302753.2142
                   2                   6         115892.8073        -35542.43247        -80350.37482         9252.452154         58121.59106        -22403.97118         208860.9118
                   2                   7         115892.8073        -35542.43247        -80350.37482        -9252.452154         58121.59106         22403.97118         208860.9118
                   2                   8         103556.2044        -10869.22672         -92686.9777        -9252.452154        -138121.5911         40908.87549         302753.2142
                   3                   1        -34706.23503         3501.805418         31204.42961         -2430.69742        -72955.33232         -13851.3121         140877.5911
                   3                   2        -37947.16493         9983.665205         27963.49972         -2430.69742        -7044.667677        -8989.917258         62381.80869
                   3                   3        -37947.16493         9983.665205         27963.49972          2430.69742        -7044.667677         8989.917258         62381.80869
                   3                   4        -34706.23503         3501.805418         31204.42961          2430.69742        -72955.33232          13851.3121         140877.5911
                   3                   5         34706.23503        -3501.805418        -31204.42961          2430.69742        -72955.33232         -13851.3121         140877.5911
                   3                   6         37947.16493        -9983.665205        -27963.49972          2430.69742        -7044.667677        -8989.917258         62381.80869
                   3                   7         37947.16493        -9983.665205        -27963.49972         -2430.69742        -7044.667677         8989.917258         62381.80869
                   3                   8         34706.23503        -3501.805418        -31204.42961         -2430.69742        -72955.33232          13851.3121         140877.5911

***** Strain Data ******
          Element No         Integral No           Strain XX           Strain YY           Strain ZZ           Strain XY           Strain XZ           Strain YZ
----------------------------------------------------------------------------------------------------------------------------------------------------------------
                   1                   1       -0.3718692102        0.1678234345        0.2040457758        0.0494806384       -0.7244864146       -0.0362223413
                   1                   2        -0.338882118        0.1018492499         0.237032868        0.0494806384        0.4273435574       -0.1351836181
                   1                   3        -0.338882118        0.1018492499         0.237032868       -0.0494806384        0.4273435574        0.1351836181
                   1                   4       -0.3718692102        0.1678234345        0.2040457758       -0.0494806384       -0.7244864146        0.0362223413
                   1                   5        0.3718692102       -0.1678234345       -0.2040457758       -0.0494806384       -0.7244864146       -0.0362223413
                   1                   6         0.338882118       -0.1018492499        -0.237032868       -0.0494806384        0.4273435574       -0.1351836181
                   1                   7         0.338882118       -0.1018492499        -0.237032868        0.0494806384        0.4273435574        0.1351836181
                   1                   8        0.3718692102       -0.1678234345       -0.2040457758        0.0494806384       -0.7244864146        0.0362223413
                   2                   1       -0.1932977357       0.02282210342        0.1704756323      -0.03244642346       -0.5123447966       -0.1476535289
                   2                   2       -0.2149286847       0.06608400137        0.1488446833      -0.03244642346        0.2152019395      -0.08276068198
                   2                   3       -0.2149286847       0.06608400137        0.1488446833       0.03244642346        0.2152019395       0.08276068198
                   2                   4       -0.1932977357       0.02282210342        0.1704756323       0.03244642346       -0.5123447966        0.1476535289
                   2                   5        0.1932977357      -0.02282210342       -0.1704756323       0.03244642346       -0.5123447966       -0.1476535289
                   2                   6        0.2149286847      -0.06608400137       -0.1488446833       0.03244642346        0.2152019395      -0.08276068198
                   2                   7        0.2149286847      -0.06608400137       -0.1488446833      -0.03244642346        0.2152019395       0.08276068198
                   2                   8        0.1932977357      -0.02282210342       -0.1704756323      -0.03244642346       -0.5123447966        0.1476535289
                   3                   1      -0.06428746064      0.006076587258       0.05821087338     -0.009390011315       -0.2710697626      -0.05213428612
                   3                   2      -0.07054746818       0.01859660235       0.05195086584     -0.009390011315      -0.02607309455      -0.03335426349
                   3                   3      -0.07054746818       0.01859660235       0.05195086584      0.009390011315      -0.02607309455       0.03335426349
                   3                   4      -0.06428746064      0.006076587258       0.05821087338      0.009390011315       -0.2710697626       0.05213428612
                   3                   5       0.06428746064     -0.006076587258      -0.05821087338      0.009390011315       -0.2710697626      -0.05213428612
                   3                   6       0.07054746818      -0.01859660235      -0.05195086584      0.009390011315      -0.02607309455      -0.03335426349
                   3                   7       0.07054746818      -0.01859660235      -0.05195086584     -0.009390011315      -0.02607309455       0.03335426349
                   3                   8       0.06428746064     -0.006076587258      -0.05821087338     -0.009390011315       -0.2710697626       0.05213428612

***** Plastic Strain Data ******
          Element No         Integral No          PStrain XX          PStrain YY          PStrain ZZ          PStrain XY          PStrain XZ          PStrain YZ     Equivalent Plastic Strain
----------------------------------------------------------------------------------------------------------------------------------------------------------------------------------------------
                   1                   1       -0.1367707914       0.06189035036       0.07488044106       0.01774479389       -0.2757301762       -0.0129900907                  0.2103996277
                   1                   2                   0                   0                   0                   0                   0                   0                             0
                   1                   3                   0                   0                   0                   0                   0                   0                             0
                   1                   4       -0.1367707914       0.06189035036       0.07488044106      -0.01774479389       -0.2757301762        0.0129900907                  0.2103996277
                   1                   5        0.1367707914      -0.06189035036      -0.07488044106      -0.01774479389       -0.2757301762       -0.0129900907                  0.2103996277
                   1                   6                   0                   0                   0                   0                   0                   0                             0
                   1                   7                   0                   0                   0                   0                   0                   0                             0
                   1                   8        0.1367707914      -0.06189035036      -0.07488044106       0.01774479389       -0.2757301762        0.0129900907                  0.2103996277
                   2                   1                   0                   0                   0                   0                   0                   0                             0
                   2                   2                   0                   0                   0                   0                   0                   0                             0
                   2                   3                   0                   0                   0                   0                   0                   0                             0
                   2                   4                   0                   0                   0                   0                   0                   0                             0
                   2                   5                   0                   0                   0                   0                   0                   0                             0
                   2                   6                   0                   0                   0                   0                   0                   0                             0
                   2                   7                   0                   0                   0                   0                   0                   0                             0
                   2                   8                   0                   0                   0                   0                   0                   0                             0
                   3                   1                   0                   0                   0                   0                   0                   0                             0
                   3                   2                   0                   0                   0                   0                   0                   0                             0
                   3                   3                   0                   0                   0                   0                   0                   0                             0
                   3                   4                   0                   0                   0                   0                   0                   0                             0
                   3                   5                   0                   0                   0                   0                   0                   0                             0
                   3                   6                   0                   0                   0                   0                   0                   0                             0
                   3                   7                   0                   0                   0                   0                   0                   0                             0
                   3                   8                   0                   0                   0                   0                   0                   0                             0

***** Reaction Force Data ******
              NodeNo           Magnitude             X Force             Y Force             Z Force
----------------------------------------------------------------------------------------------------
                   1         18536.29314               18000        -3254.867652                3000
                   2     8.829596408e-12                   0     -5.00222086e-12     7.275957614e-12
                   3       8.2979107e-11    -3.637978807e-11     2.842170943e-13     7.457856555e-11
                   4     9.672535198e-11     2.086153472e-11     1.516653469e-11     9.322320693e-11
                   5         18536.29314              -18000         3254.867652                3000
                   6     2.100223944e-11     1.818989404e-12     4.547473509e-13     2.091837814e-11
                   7     7.080821575e-11    -5.456968211e-12     2.131628207e-11    -6.730260793e-11
                   8     4.586823864e-11    -6.025402399e-12    -1.271871497e-11     4.365574569e-11
                   9         18536.29314               18000         3254.867652                3000
                  10     2.489092764e-11     2.000888344e-11    -2.728484105e-12    -1.455191523e-11
                  11       3.4973488e-11     6.366462912e-12    -1.051603249e-11     3.274180926e-11
                  12     5.088413182e-11    -4.285993782e-11     2.785327524e-12     2.728484105e-11
                  13         18536.29314              -18000        -3254.867652                3000
                  14     2.034200338e-11    -1.818989404e-11    -4.547473509e-13     9.094947018e-12
                  15     1.008089467e-10    -2.000888344e-11     7.059952623e-11    -6.912159733e-11
                  16     4.431012185e-11    -9.606537787e-12    -3.200106846e-11    -2.910383046e-11

*Increment 4

***** Displacement Data ******
              NodeNo           Magnitude      X Displacement      Y Displacement      Z Displacement
----------------------------------------------------------------------------------------------------
                   1                   0                   0                   0                   0
                   2         2.035498765        -1.330018689        0.1979225536        -1.528113927
                   3         5.659393549        -2.170117297       0.06813685976         -5.22634515
                   4         10.34272384        -2.453015081        0.0305768145        -10.04757277
                   5                   0                   0                   0                   0
                   6         2.035498765         1.330018689       -0.1979225536        -1.528113927
                   7         5.659393549         2.170117297      -0.06813685976         -5.22634515
                   8         10.34272384         2.453015081       -0.0305768145        -10.04757277
                   9                   0                   0                   0                   0
                  10         2.035498765        -1.330018689       -0.1979225536        -1.528113927
                  11         5.659393549        -2.170117297      -0.06813685976         -5.22634515
                  12         10.34272384        -2.453015081       -0.0305768145        -10.04757277
                  13                   0                   0                   0                   0
                  14         2.035498765         1.330018689        0.1979225536        -1.528113927
                  15         5.659393549         2.170117297       0.06813685976         -5.22634515
                  16         10.34272384         2.453015081        0.0305768145        -10.04757277

***** Stress Data ******
          Element No         Integral No           Stress XX           Stress YY           Stress ZZ           Stress XY           Stress XZ           Stress YZ               Mises
------------------------------------------------------------------------------------------------------------------------------------------------------------------------------------
                   1                   1        -190894.4894         86420.02238          104474.467         12331.41499         -193647.391        -9027.222302         442079.9255
                   1                   2        -194635.3681         59711.96544         134923.4027         13764.64834         113640.8656        -37605.71862         364736.7006
                   1                   3        -194635.3681         59711.96544         134923.4027        -13764.64834         113640.8656         37605.71862         364736.7006
                   1                   4        -190894.4894         86420.02238          104474.467        -12331.41499         -193647.391         9027.222302         442079.9255
                   1                   5         190894.4894        -86420.02238         -104474.467        -12331.41499         -193647.391        -9027.222302         442079.9255
                   1                   6         194635.3681        -59711.96544        -134923.4027        -13764.64834         113640.8656        -37605.71862         364736.7006
                   1                   7         194635.3681        -59711.96544        -134923.4027         13764.64834         113640.8656         37605.71862         364736.7006
                   1                   8         190894.4894        -86420.02238         -104474.467         12331.41499         -193647.391         9027.222302         442079.9255
                   2                   1        -103556.2044         10869.22672          92686.9777        -9252.452154        -138121.5911        -40908.87549         302753.2142
                   2                   2        -115892.8073         35542.43247         80350.37482        -9252.452154         58121.59106        -22403.97118         208860.9118
                   2                   3        -115892.8073         35542.43247         80350.37482         9252.452154         58121.59106         22403.97118         208860.9118
                   2                   4        -103556.2044         10869.22672          92686.9777         9252.452154        -138121.5911         40908.87549         302753.2142
                   2                   5         103556.2044        -10869.22672         -92686.9777         9252.452154        -138121.5911        -40908.87549         302753.2142
                   2                   6         115892.8073        -35542.43247        -80350.37482         9252.452154         58121.59106        -22403.97118         208860.9118
                   2                   7         115892.8073        -35542.43247        -80350.37482        -9252.452154         58121.59106         22403.97118         208860.9118
                   2                   8         103556.2044        -10869.22672         -92686.9777        -9252.452154        -138121.5911         40908.87549         302753.2142
                   3                   1        -34706.23503         3501.805418         31204.42961         -2430.69742        -72955.33232         -13851.3121         140877.5911
                   3                   2        -37947.16493         9983.665205         27963.49972         -2430.69742        -7044.667677        -8989.917258         62381.80869
                   3                   3        -37947.16493         9983.665205         27963.49972          2430.69742        -7044.667677         8989.917258         62381.80869
                   3                   4        -34706.23503         3501.805418         31204.42961          2430.69742        -72955.33232          13851.3121         140877.5911
                   3                   5         34706.23503        -3501.805418        -31204.42961          2430.69742        -72955.33232         -13851.3121         140877.5911
                   3                   6         37947.16493        -9983.665205        -27963.49972          2430.69742        -7044.667677        -8989.917258         62381.80869
                   3                   7         37947.16493        -9983.665205        -27963.49972         -2430.69742        -7044.667677         8989.917258         62381.80869
                   3                   8         34706.23503        -3501.805418        -31204.42961         -2430.69742        -72955.33232          13851.3121         140877.5911

***** Strain Data ******
          Element No         Integral No           Strain XX           Strain YY           Strain ZZ           Strain XY           Strain XZ           Strain YZ
----------------------------------------------------------------------------------------------------------------------------------------------------------------
                   1                   1       -0.4958256136        0.2237645793        0.2720610344       0.06597418453       -0.9659818861      -0.04829645506
                   1                   2        -0.451842824        0.1357989999         0.316043824       0.06597418453        0.5697914099       -0.1802448241
                   1                   3        -0.451842824        0.1357989999         0.316043824      -0.06597418453        0.5697914099        0.1802448241
                   1                   4       -0.4958256136        0.2237645793        0.2720610344      -0.06597418453       -0.9659818861       0.04829645506
                   1                   5        0.4958256136       -0.2237645793       -0.2720610344      -0.06597418453       -0.9659818861      -0.04829645506
                   1                   6         0.451842824       -0.1357989999        -0.316043824      -0.06597418453        0.5697914099       -0.1802448241
                   1                   7         0.451842824       -0.1357989999        -0.316043824       0.06597418453        0.5697914099        0.1802448241
                   1                   8        0.4958256136       -0.2237645793       -0.2720610344       0.06597418453       -0.9659818861       0.04829645506
                   2                   1       -0.2577303143       0.03042947123        0.2273008431      -0.04326189794       -0.6831263955       -0.1968713719
                   2                   2       -0.2865715796       0.08811200182        0.1984595778      -0.04326189794        0.2869359193        -0.110347576
                   2                   3       -0.2865715796       0.08811200182        0.1984595778       0.04326189794        0.2869359193         0.110347576
                   2                   4       -0.2577303143       0.03042947123        0.2273008431       0.04326189794       -0.6831263955        0.1968713719
                   2                   5        0.2577303143      -0.03042947123       -0.2273008431       0.04326189794       -0.6831263955       -0.1968713719
                   2                   6        0.2865715796      -0.08811200182       -0.1984595778       0.04326189794        0.2869359193        -0.110347576
                   2                   7        0.2865715796      -0.08811200182       -0.1984595778      -0.04326189794        0.2869359193         0.110347576
                   2                   8        0.2577303143      -0.03042947123       -0.2273008431      -0.04326189794       -0.6831263955        0.1968713719
                   3                   1      -0.08571661418      0.008102116344       0.07761449784      -0.01252001509       -0.3614263501       -0.0695123815
                   3                   2      -0.09406329091       0.02479546979       0.06926782112      -0.01252001509      -0.03476412607      -0.04447235132
                   3                   3      -0.09406329091       0.02479546979       0.06926782112       0.01252001509      -0.03476412607       0.04447235132
                   3                   4      -0.08571661418      0.008102116344       0.07761449784       0.01252001509       -0.3614263501        0.0695123815
                   3                   5       0.08571661418     -0.008102116344      -0.07761449784       0.01252001509       -0.3614263501       -0.0695123815
                   3                   6       0.09406329091      -0.02479546979      -0.06926782112       0.01252001509      -0.03476412607      -0.04447235132
                   3                   7       0.09406329091      -0.02479546979      -0.06926782112      -0.01252001509      -0.03476412607       0.04447235132
                   3                   8       0.08571661418     -0.008102116344      -0.07761449784      -0.01252001509       -0.3614263501        0.0695123815

***** Plastic Strain Data ******
          Element No         Integral No          PStrain XX          PStrain YY          PStrain ZZ          PStrain XY          PStrain XZ          PStrain YZ     Equivalent Plastic Strain
----------------------------------------------------------------------------------------------------------------------------------------------------------------------------------------------
                   1                   1       -0.1367707914       0.06189035036       0.07488044106       0.01774479389       -0.2757301762       -0.0129900907                  0.2103996277
                   1                   2                   0                   0                   0                   0                   0                   0                             0
                   1                   3                   0                   0                   0                   0                   0                   0                             0
                   1                   4       -0.1367707914       0.06189035036       0.07488044106      -0.01774479389       -0.2757301762        0.0129900907                  0.2103996277
                   1                   5        0.1367707914      -0.06189035036      -0.07488044106      -0.01774479389       -0.2757301762       -0.0129900907                  0.2103996277
                   1                   6                   0                   0                   0                   0                   0                   0                             0
                   1                   7                   0                   0                   0                   0                   0                   0                             0
                   1                   8        0.1367707914      -0.06189035036      -0.07488044106       0.01774479389       -0.2757301762        0.0129900907                  0.2103996277
                   2                   1                   0                   0                   0                   0                   0                   0                             0
                   2                   2                   0                   0                   0                   0                   0                   0                             0
                   2                   3                   0                   0                   0                   0                   0                   0                             0
                   2                   4                   0                   0                   0                   0                   0                   0                             0
                   2                   5                   0                   0                   0                   0                   0                   0                             0
                   2                   6                   0                   0                   0                   0                   0                   0                             0
                   2                   7                   0                   0                   0                   0                   0                   0                             0
                   2                   8                   0                   0                   0                   0                   0                   0                             0
                   3                   1                   0                   0                   0                   0                   0                   0                             0
                   3                   2                   0                   0                   0                   0                   0                   0                             0
                   3                   3                   0                   0                   0                   0                   0                   0                             0
                   3                   4                   0                   0                   0                   0                   0                   0                             0
                   3                   5                   0                   0                   0                   0                   0                   0                             0
                   3                   6                   0                   0                   0                   0                   0                   0                             0
                   3                   7                   0                   0                   0                   0                   0                   0                             0
                   3                   8                   0                   0                   0                   0                   0                   0                             0

***** Reaction Force Data ******
              NodeNo           Magnitude             X Force             Y Force             Z Force
----------------------------------------------------------------------------------------------------
                   1         24715.05752               24000        -4339.823537                4000
                   2     1.193657658e-11    -7.275957614e-12    -5.456968211e-12     7.730704965e-12
                   3     1.397085425e-10    -1.909938874e-11     3.217337508e-11     1.346052159e-10
                   4     1.716013772e-10    -1.543298822e-11     3.242561775e-11     1.678017725e-10
                   5         24715.05752              -24000         4339.823537                4000
                   6     4.411283703e-11    -1.637090463e-11    -1.591615728e-11     3.774403012e-11
                   7     1.321189759e-10     2.546585165e-11     4.024514055e-11    -1.232365321e-10
                   8     2.656018346e-11     -1.29602995e-11     4.526157227e-12     2.273736754e-11
                   9         24715.05752               24000         4339.823537                4000
                  10     3.419083211e-11     1.091393642e-11     2.728484105e-12    -3.228706191e-11
                  11     5.423434138e-11     3.456079867e-11    -2.057731763e-11     3.637978807e-11
                  12     1.257140498e-10    -9.094947018e-11    -1.944044925e-11     8.458300726e-11
                  13         24715.05752              -24000        -4339.823537                4000
                  14     5.096468211e-11     -5.09317033e-11    -2.273736754e-13     1.818989404e-12
                  15     1.445846747e-10     3.092281986e-11     6.650680007e-11    -1.246007741e-10
                  16     8.296579469e-11    -3.251443559e-11    -5.428368866e-11     -5.36601874e-11

*Increment 5

***** Displacement Data ******
              NodeNo           Magnitude      X Displacement      Y Displacement      Z Displacement
----------------------------------------------------------------------------------------------------
                   1                   0                   0                   0                   0
                   2         2.544373457        -1.662523361         0.247403192        -1.910142409
                   3         7.074241936        -2.712646621        0.0851710747        -6.532931438
                   4          12.9284048        -3.066268851       0.03822101813        -12.55946596
                   5                   0                   0                   0                   0
                   6         2.544373457         1.662523361        -0.247403192        -1.910142409
                   7         7.074241936         2.712646621       -0.0851710747        -6.532931438
                   8          12.9284048         3.066268851      -0.03822101813        -12.55946596
                   9                   0                   0                   0                   0
                  10         2.544373457        -1.662523361        -0.247403192        -1.910142409
                  11         7.074241936        -2.712646621       -0.0851710747        -6.532931438
                  12          12.9284048        -3.066268851      -0.03822101813        -12.55946596
                  13                   0                   0                   0                   0
                  14         2.544373457         1.662523361         0.247403192        -1.910142409
                  15         7.074241936         2.712646621        0.0851710747        -6.532931438
                  16          12.9284048         3.066268851       0.03822101813        -12.55946596

***** Stress Data ******
          Element No         Integral No           Stress XX           Stress YY           Stress ZZ           Stress XY           Stress XZ           Stress YZ               Mises
------------------------------------------------------------------------------------------------------------------------------------------------------------------------------------
                   1                   1        -190894.4894         86420.02238          104474.467         12331.41499         -193647.391        -9027.222302         442079.9255
                   1                   2        -194635.3681         59711.96544         134923.4027         13764.64834         113640.8656        -37605.71862         364736.7006
                   1                   3        -194635.3681         59711.96544         134923.4027        -13764.64834         113640.8656         37605.71862         364736.7006
                   1                   4        -190894.4894         86420.02238          104474.467        -12331.41499         -193647.391         9027.222302         442079.9255
                   1                   5         190894.4894        -86420.02238         -104474.467        -12331.41499         -193647.391        -9027.222302         442079.9255
                   1                   6         194635.3681        -59711.96544        -134923.4027        -13764.64834         113640.8656        -37605.71862         364736.7006
                   1                   7         194635.3681        -59711.96544        -134923.4027         13764.64834         113640.8656         37605.71862         364736.7006
                   1                   8         190894.4894        -86420.02238         -104474.467         12331.41499         -193647.391         9027.222302         442079.9255
                   2                   1        -103556.2044         10869.22672          92686.9777        -9252.452154        -138121.5911        -40908.87549         302753.2142
                   2                   2        -115892.8073         35542.43247         80350.37482        -9252.452154         58121.59106        -22403.97118         208860.9118
                   2                   3        -115892.8073         35542.43247         80350.37482         9252.452154         58121.59106         22403.97118         208860.9118
                   2                   4        -103556.2044         10869.22672          92686.9777         9252.452154        -138121.5911         40908.87549         302753.2142
                   2                   5         103556.2044        -10869.22672         -92686.9777         9252.452154        -138121.5911        -40908.87549         302753.2142
                   2                   6         115892.8073        -35542.43247        -80350.37482         9252.452154         58121.59106        -22403.97118         208860.9118
                   2                   7         115892.8073        -35542.43247        -80350.37482        -9252.452154         58121.59106         22403.97118         208860.9118
                   2                   8         103556.2044        -10869.22672         -92686.9777        -9252.452154        -138121.5911         40908.87549         302753.2142
                   3                   1        -34706.23503         3501.805418         31204.42961         -2430.69742        -72955.33232         -13851.3121         140877.5911
                   3                   2        -37947.16493         9983.665205         27963.49972         -2430.69742        -7044.667677        -8989.917258         62381.80869
                   3                   3        -37947.16493         9983.665205         27963.49972          2430.69742        -7044.667677         8989.917258         62381.80869
                   3                   4        -34706.23503         3501.805418         31204.42961          2430.69742        -72955.33232          13851.3121         140877.5911
                   3                   5         34706.23503        -3501.805418        -31204.42961          2430.69742        -72955.33232         -13851.3121         140877.5911
                   3                   6         37947.16493        -9983.665205        -27963.49972          2430.69742        -7044.667677        -8989.917258         62381.80869
                   3                   7         37947.16493        -9983.665205        -27963.49972         -2430.69742        -7044.667677         8989.917258         62381.80869
                   3                   8         34706.23503        -3501.805418        -31204.42961         -2430.69742        -72955.33232          13851.3121         140877.5911

***** Strain Data ******
          Element No         Integral No           Strain XX           Strain YY           Strain ZZ           Strain XY           Strain XZ           Strain YZ
----------------------------------------------------------------------------------------------------------------------------------------------------------------
                   1                   1       -0.6197820171        0.2797057241        0.3400762929       0.08246773066        -1.207477358      -0.06037056883
                   1                   2       -0.5648035299        0.1697487499        0.3950547801       0.08246773066        0.7122392624       -0.2253060302
                   1                   3       -0.5648035299        0.1697487499        0.3950547801      -0.08246773066        0.7122392624        0.2253060302
                   1                   4       -0.6197820171        0.2797057241        0.3400762929      -0.08246773066        -1.207477358       0.06037056883
                   1                   5        0.6197820171       -0.2797057241       -0.3400762929      -0.08246773066        -1.207477358      -0.06037056883
                   1                   6        0.5648035299       -0.1697487499       -0.3950547801      -0.08246773066        0.7122392624       -0.2253060302
                   1                   7        0.5648035299       -0.1697487499       -0.3950547801       0.08246773066        0.7122392624        0.2253060302
                   1                   8        0.6197820171       -0.2797057241       -0.3400762929       0.08246773066        -1.207477358       0.06037056883
                   2                   1       -0.3221628929       0.03803683904        0.2841260539      -0.05407737243       -0.8539079944       -0.2460892148
                   2                   2       -0.3582144745        0.1101400023        0.2480744722      -0.05407737243        0.3586698991         -0.13793447
                   2                   3       -0.3582144745        0.1101400023        0.2480744722       0.05407737243        0.3586698991          0.13793447
                   2                   4       -0.3221628929       0.03803683904        0.2841260539       0.05407737243       -0.8539079944        0.2460892148
                   2                   5        0.3221628929      -0.03803683904       -0.2841260539       0.05407737243       -0.8539079944       -0.2460892148
                   2                   6        0.3582144745       -0.1101400023       -0.2480744722       0.05407737243        0.3586698991         -0.13793447
                   2                   7        0.3582144745       -0.1101400023       -0.2480744722      -0.05407737243        0.3586698991          0.13793447
                   2                   8        0.3221628929      -0.03803683904       -0.2841260539      -0.05407737243       -0.8539079944        0.2460892148
                   3                   1       -0.1071457677       0.01012764543        0.0970181223      -0.01565001886       -0.4517829376      -0.08689047687
                   3                   2       -0.1175791136       0.03099433724       0.08658477639      -0.01565001886      -0.04345515759      -0.05559043915
                   3                   3       -0.1175791136       0.03099433724       0.08658477639       0.01565001886      -0.04345515759       0.05559043915
                   3                   4       -0.1071457677       0.01012764543        0.0970181223       0.01565001886       -0.4517829376       0.08689047687
                   3                   5        0.1071457677      -0.01012764543       -0.0970181223       0.01565001886       -0.4517829376      -0.08689047687
                   3                   6        0.1175791136      -0.03099433724      -0.08658477639       0.01565001886      -0.04345515759      -0.05559043915
                   3                   7        0.1175791136      -0.03099433724      -0.08658477639      -0.01565001886      -0.04345515759       0.05559043915
                   3                   8        0.1071457677      -0.01012764543       -0.0970181223      -0.01565001886       -0.4517829376       0.08689047687

***** Plastic Strain Data ******
          Element No         Integral No          PStrain XX          PStrain YY          PStrain ZZ          PStrain XY          PStrain XZ          PStrain YZ     Equivalent Plastic Strain
----------------------------------------------------------------------------------------------------------------------------------------------------------------------------------------------
                   1                   1       -0.1367707914       0.06189035036       0.07488044106       0.01774479389       -0.2757301762       -0.0129900907                  0.2103996277
                   1                   2                   0                   0                   0                   0                   0                   0                             0
                   1                   3                   0                   0                   0                   0                   0                   0                             0
                   1                   4       -0.1367707914       0.06189035036       0.07488044106      -0.01774479389       -0.2757301762        0.0129900907                  0.2103996277
                   1                   5        0.1367707914      -0.06189035036      -0.07488044106      -0.01774479389       -0.2757301762       -0.0129900907                  0.2103996277
                   1                   6                   0                   0                   0                   0                   0                   0                             0
                   1                   7                   0                   0                   0                   0                   0                   0                             0
                   1                   8        0.1367707914      -0.06189035036      -0.07488044106       0.01774479389       -0.2757301762        0.0129900907                  0.2103996277
                   2                   1                   0                   0                   0                   0                   0                   0                             0
                   2                   2                   0                   0                   0                   0                   0                   0                             0
                   2                   3                   0                   0                   0                   0                   0                   0                             0
                   2                   4                   0                   0                   0                   0                   0                   0                             0
                   2                   5                   0                   0                   0                   0                   0                   0                             0
                   2                   6                   0                   0                   0                   0                   0                   0                             0
                   2                   7                   0                   0                   0                   0                   0                   0                             0
                   2                   8                   0                   0                   0                   0                   0                   0                             0
                   3                   1                   0                   0                   0                   0                   0                   0                             0
                   3                   2                   0                   0                   0                   0                   0                   0                             0
                   3                   3                   0                   0                   0                   0                   0                   0                             0
                   3                   4                   0                   0                   0                   0                   0                   0                             0
                   3                   5                   0                   0                   0                   0                   0                   0                             0
                   3                   6                   0                   0                   0                   0                   0                   0                             0
                   3                   7                   0                   0                   0                   0                   0                   0                             0
                   3                   8                   0                   0                   0                   0                   0                   0                             0

***** Reaction Force Data ******
              NodeNo           Magnitude             X Force             Y Force             Z Force
----------------------------------------------------------------------------------------------------
                   1          30893.8219               30000        -5424.779421                5000
                   2     2.204000487e-11    -1.455191523e-11    -1.318767318e-11    -1.000444172e-11
                   3     1.407031588e-10    -2.728484105e-11     -1.38697942e-11        1.373337e-10
                   4     1.670891728e-10     1.324451659e-11      4.60502747e-11     1.600710675e-10
                   5          30893.8219              -30000         5424.779421                5000
                   6     4.824824389e-11    -1.818989404e-11    -9.549694369e-12     4.365574569e-11
                   7     1.320493052e-10     3.637978807e-12     5.070432962e-11      -1.2187229e-10
                   8     8.045322029e-11    -3.444711183e-11    -1.592326271e-11     7.094058674e-11
                   9          30893.8219               30000         5424.779421                5000
                  10     4.128507419e-11     2.182787284e-11    -9.777068044e-12    -3.365130397e-11
                  11     7.949246769e-11     4.729372449e-11    -1.921307557e-11     6.093614502e-11
                  12     8.184371134e-11    -7.821654435e-11     1.020339369e-11     2.182787284e-11
                  13          30893.8219              -30000        -5424.779421                5000
                  14     5.978673952e-11    -5.820766091e-11     6.821210263e-12     1.182343112e-11
                  15     1.528223449e-10     9.094947018e-12     1.143689587e-10    -1.009539119e-10
                  16     8.384387429e-11    -3.024069883e-11    -6.718536838e-11    -4.001776688e-11

*Increment 6

***** Displacement Data ******
              NodeNo           Magnitude      X Displacement      Y Displacement      Z Displacement
----------------------------------------------------------------------------------------------------
                   1                   0                   0                   0                   0
                   2         3.053248148        -1.995028033        0.2968838304         -2.29217089
                   3         8.489090324        -3.255175945        0.1022052896        -7.839517726
                   4         15.51408576        -3.679522622       0.04586522175        -15.07135915
                   5                   0                   0                   0                   0
                   6         3.053248148         1.995028033       -0.2968838304         -2.29217089
                   7         8.489090324         3.255175945       -0.1022052896        -7.839517726
                   8         15.51408576         3.679522622      -0.04586522175        -15.07135915
                   9                   0                   0                   0                   0
                  10         3.053248148        -1.995028033       -0.2968838304         -2.29217089
                  11         8.489090324        -3.255175945       -0.1022052896        -7.839517726
                  12         15.51408576        -3.679522622      -0.04586522175        -15.07135915
                  13                   0                   0                   0                   0
                  14         3.053248148         1.995028033        0.2968838304         -2.29217089
                  15         8.489090324         3.255175945        0.1022052896        -7.839517726
                  16         15.51408576         3.679522622       0.04586522175        -15.07135915

***** Stress Data ******
          Element No         Integral No           Stress XX           Stress YY           Stress ZZ           Stress XY           Stress XZ           Stress YZ               Mises
------------------------------------------------------------------------------------------------------------------------------------------------------------------------------------
                   1                   1        -190894.4894         86420.02238          104474.467         12331.41499         -193647.391        -9027.222302         442079.9255
                   1                   2        -194635.3681         59711.96544         134923.4027         13764.64834         113640.8656        -37605.71862         364736.7006
                   1                   3        -194635.3681         59711.96544         134923.4027        -13764.64834         113640.8656         37605.71862         364736.7006
                   1                   4        -190894.4894         86420.02238          104474.467        -12331.41499         -193647.391         9027.222302         442079.9255
                   1                   5         190894.4894        -86420.02238         -104474.467        -12331.41499         -193647.391        -9027.222302         442079.9255
                   1                   6         194635.3681        -59711.96544        -134923.4027        -13764.64834         113640.8656        -37605.71862         364736.7006
                   1                   7         194635.3681        -59711.96544        -134923.4027         13764.64834         113640.8656         37605.71862         364736.7006
                   1                   8         190894.4894        -86420.02238         -104474.467         12331.41499         -193647.391         9027.222302         442079.9255
                   2                   1        -103556.2044         10869.22672          92686.9777        -9252.452154        -138121.5911        -40908.87549         302753.2142
                   2                   2        -115892.8073         35542.43247         80350.37482        -9252.452154         58121.59106        -22403.97118         208860.9118
                   2                   3        -115892.8073         35542.43247         80350.37482         9252.452154         58121.59106         22403.97118         208860.9118
                   2                   4        -103556.2044         10869.22672          92686.9777         9252.452154        -138121.5911         40908.87549         302753.2142
                   2                   5         103556.2044        -10869.22672         -92686.9777         9252.452154        -138121.5911        -40908.87549         302753.2142
                   2                   6         115892.8073        -35542.43247        -80350.37482         9252.452154         58121.59106        -22403.97118         208860.9118
                   2                   7         115892.8073        -35542.43247        -80350.37482        -9252.452154         58121.59106         22403.97118         208860.9118
                   2                   8         103556.2044        -10869.22672         -92686.9777        -9252.452154        -138121.5911         40908.87549         302753.2142
                   3                   1        -34706.23503         3501.805418         31204.42961         -2430.69742        -72955.33232         -13851.3121         140877.5911
                   3                   2        -37947.16493         9983.665205         27963.49972         -2430.69742        -7044.667677        -8989.917258         62381.80869
                   3                   3        -37947.16493         9983.665205         27963.49972          2430.69742        -7044.667677         8989.917258         62381.80869
                   3                   4        -34706.23503         3501.805418         31204.42961          2430.69742        -72955.33232          13851.3121         140877.5911
                   3                   5         34706.23503        -3501.805418        -31204.42961          2430.69742        -72955.33232         -13851.3121         140877.5911
                   3                   6         37947.16493        -9983.665205        -27963.49972          2430.69742        -7044.667677        -8989.917258         62381.80869
                   3                   7         37947.16493        -9983.665205        -27963.49972         -2430.69742        -7044.667677         8989.917258         62381.80869
                   3                   8         34706.23503        -3501.805418        -31204.42961         -2430.69742        -72955.33232          13851.3121         140877.5911

***** Strain Data ******
          Element No         Integral No           Strain XX           Strain YY           Strain ZZ           Strain XY           Strain XZ           Strain YZ
----------------------------------------------------------------------------------------------------------------------------------------------------------------
                   1                   1       -0.7437384205        0.3356468689        0.4080915515        0.0989612768        -1.448972829       -0.0724446826
                   1                   2       -0.6777642359        0.2036984999        0.4740657361        0.0989612768        0.8546871148       -0.2703672362
                   1                   3       -0.6777642359        0.2036984999        0.4740657361       -0.0989612768        0.8546871148        0.2703672362
                   1                   4       -0.7437384205        0.3356468689        0.4080915515       -0.0989612768        -1.448972829        0.0724446826
                   1                   5        0.7437384205       -0.3356468689       -0.4080915515       -0.0989612768        -1.448972829       -0.0724446826
                   1                   6        0.6777642359       -0.2036984999       -0.4740657361       -0.0989612768        0.8546871148       -0.2703672362
                   1                   7        0.6777642359       -0.2036984999       -0.4740657361        0.0989612768        0.8546871148        0.2703672362
                   1                   8        0.7437384205       -0.3356468689       -0.4080915515        0.0989612768        -1.448972829        0.0724446826
                   2                   1       -0.3865954715       0.04564420684        0.3409512646      -0.06489284691        -1.024689593       -0.2953070578
                   2                   2       -0.4298573694        0.1321680027        0.2976893667      -0.06489284691         0.430403879        -0.165521364
                   2                   3       -0.4298573694        0.1321680027        0.2976893667       0.06489284691         0.430403879         0.165521364
                   2                   4       -0.3865954715       0.04564420684        0.3409512646       0.06489284691        -1.024689593        0.2953070578
                   2                   5        0.3865954715      -0.04564420684       -0.3409512646       0.06489284691        -1.024689593       -0.2953070578
                   2                   6        0.4298573694       -0.1321680027       -0.2976893667       0.06489284691         0.430403879        -0.165521364
                   2                   7        0.4298573694       -0.1321680027       -0.2976893667      -0.06489284691         0.430403879         0.165521364
                   2                   8        0.3865954715      -0.04564420684       -0.3409512646      -0.06489284691        -1.024689593        0.2953070578
                   3                   1       -0.1285749213       0.01215317452        0.1164217468      -0.01878002263       -0.5421395252       -0.1042685722
                   3                   2       -0.1410949364       0.03719320469        0.1039017317      -0.01878002263      -0.05214618911      -0.06670852698
                   3                   3       -0.1410949364       0.03719320469        0.1039017317       0.01878002263      -0.05214618911       0.06670852698
                   3                   4       -0.1285749213       0.01215317452        0.1164217468       0.01878002263       -0.5421395252        0.1042685722
                   3                   5        0.1285749213      -0.01215317452       -0.1164217468       0.01878002263       -0.5421395252       -0.1042685722
                   3                   6        0.1410949364      -0.03719320469       -0.1039017317       0.01878002263      -0.05214618911      -0.06670852698
                   3                   7        0.1410949364      -0.03719320469       -0.1039017317      -0.01878002263      -0.05214618911       0.06670852698
                   3                   8        0.1285749213      -0.01215317452       -0.1164217468      -0.01878002263       -0.5421395252        0.1042685722

***** Plastic Strain Data ******
          Element No         Integral No          PStrain XX          PStrain YY          PStrain ZZ          PStrain XY          PStrain XZ          PStrain YZ     Equivalent Plastic Strain
----------------------------------------------------------------------------------------------------------------------------------------------------------------------------------------------
                   1                   1       -0.1367707914       0.06189035036       0.07488044106       0.01774479389       -0.2757301762       -0.0129900907                  0.2103996277
                   1                   2                   0                   0                   0                   0                   0                   0                             0
                   1                   3                   0                   0                   0                   0                   0                   0                             0
                   1                   4       -0.1367707914       0.06189035036       0.07488044106      -0.01774479389       -0.2757301762        0.0129900907                  0.2103996277
                   1                   5        0.1367707914      -0.06189035036      -0.07488044106      -0.01774479389       -0.2757301762       -0.0129900907                  0.2103996277
                   1                   6                   0                   0                   0                   0                   0                   0                             0
                   1                   7                   0                   0                   0                   0                   0                   0                             0
                   1                   8        0.1367707914      -0.06189035036      -0.07488044106       0.01774479389       -0.2757301762        0.0129900907                  0.2103996277
                   2                   1                   0                   0                   0                   0                   0                   0                             0
                   2                   2                   0                   0                   0                   0                   0                   0                             0
                   2                   3                   0                   0                   0                   0                   0                   0                             0
                   2                   4                   0                   0                   0                   0                   0                   0                             0
                   2                   5                   0                   0                   0                   0                   0                   0                             0
                   2                   6                   0                   0                   0                   0                   0                   0                             0
                   2                   7                   0                   0                   0                   0                   0                   0                             0
                   2                   8                   0                   0                   0                   0                   0                   0                             0
                   3                   1                   0                   0                   0                   0                   0                   0                             0
                   3                   2                   0                   0                   0                   0                   0                   0                             0
                   3                   3                   0                   0                   0                   0                   0                   0                             0
                   3                   4                   0                   0                   0                   0                   0                   0                             0
                   3                   5                   0                   0                   0                   0                   0                   0                             0
                   3                   6                   0                   0                   0                   0                   0                   0                             0
                   3                   7                   0                   0                   0                   0                   0                   0                             0
                   3                   8                   0                   0                   0                   0                   0                   0                             0

***** Reaction Force Data ******
              NodeNo           Magnitude             X Force             Y Force             Z Force
----------------------------------------------------------------------------------------------------
                   1         37072.58628               36000        -6509.735305                6000
                   2     2.459422337e-11    -7.275957614e-12    -5.911715562e-12     2.273736754e-11
                   3     2.036843031e-10    -9.276845958e-11      1.11413101e-11     1.809894457e-10
                   4     2.040361612e-10      9.49285095e-12     2.014388656e-11     2.028173185e-10
                   5         37072.58628              -36000         6509.735305                6000
                   6     3.721156199e-11     2.546585165e-11     6.366462912e-12     2.637534635e-11
                   7      2.60914661e-10    -7.275957614e-12     9.515588317e-11    -2.428350854e-10
                   8     6.124550139e-11    -2.799538379e-11      4.05435685e-11     3.637978807e-11
                   9         37072.58628               36000         6509.735305                6000
                  10     6.230536586e-11     5.456968211e-11    -3.001332516e-11    -1.818989404e-12
                  11     1.201816142e-10     7.275957614e-12    -7.014477887e-11     9.731593309e-11
                  12     1.982158645e-10    -1.427906682e-10    -4.180833457e-11     1.309672371e-10
                  13         37072.58628              -36000        -6509.735305                6000
                  14     3.784252153e-11    -3.274180926e-11    -1.318767318e-11    -1.364242053e-11
                  15     2.407363283e-10     2.728484105e-11     1.402895577e-10    -1.937223715e-10
                  16     5.708541122e-11    -8.640199667e-12    -5.642775136e-11                   0

*Increment 7

***** Displacement Data ******
              NodeNo           Magnitude      X Displacement      Y Displacement      Z Displacement
----------------------------------------------------------------------------------------------------
                   1                   0                   0                   0                   0
                   2         3.562122839        -2.327532705        0.3463644688        -2.674199372
                   3         9.903938711        -3.797705269        0.1192395046        -9.146104013
                   4         18.09976672        -4.292776392       0.05350942538        -17.58325234
                   5                   0                   0                   0                   0
                   6         3.562122839         2.327532705       -0.3463644688        -2.674199372
                   7         9.903938711         3.797705269       -0.1192395046        -9.146104013
                   8         18.09976672         4.292776392      -0.05350942538        -17.58325234
                   9                   0                   0                   0                   0
                  10         3.562122839        -2.327532705       -0.3463644688        -2.674199372
                  11         9.903938711        -3.797705269       -0.1192395046        -9.146104013
                  12         18.09976672        -4.292776392      -0.05350942538        -17.58325234
                  13                   0                   0                   0                   0
                  14         3.562122839         2.327532705        0.3463644688        -2.674199372
                  15         9.903938711         3.797705269        0.1192395046        -9.146104013
                  16         18.09976672         4.292776392       0.05350942538        -17.58325234

***** Stress Data ******
          Element No         Integral No           Stress XX           Stress YY           Stress ZZ           Stress XY           Stress XZ           Stress YZ               Mises
------------------------------------------------------------------------------------------------------------------------------------------------------------------------------------
                   1                   1        -190894.4894         86420.02238          104474.467         12331.41499         -193647.391        -9027.222302         442079.9255
                   1                   2        -194635.3681         59711.96544         134923.4027         13764.64834         113640.8656        -37605.71862         364736.7006
                   1                   3        -194635.3681         59711.96544         134923.4027        -13764.64834         113640.8656         37605.71862         364736.7006
                   1                   4        -190894.4894         86420.02238          104474.467        -12331.41499         -193647.391         9027.222302         442079.9255
                   1                   5         190894.4894        -86420.02238         -104474.467        -12331.41499         -193647.391        -9027.222302         442079.9255
                   1                   6         194635.3681        -59711.96544        -134923.4027        -13764.64834         113640.8656        -37605.71862         364736.7006
                   1                   7         194635.3681        -59711.96544        -134923.4027         13764.64834         113640.8656         37605.71862         364736.7006
                   1                   8         190894.4894        -86420.02238         -104474.467         12331.41499         -193647.391         9027.222302         442079.9255
                   2                   1        -103556.2044         10869.22672          92686.9777        -9252.452154        -138121.5911        -40908.87549         302753.2142
                   2                   2        -115892.8073         35542.43247         80350.37482        -9252.452154         58121.59106        -22403.97118         208860.9118
                   2                   3        -115892.8073         35542.43247         80350.37482         9252.452154         58121.59106         22403.97118         208860.9118
                   2                   4        -103556.2044         10869.22672          92686.9777         9252.452154        -138121.5911         40908.87549         302753.2142
                   2                   5         103556.2044        -10869.22672         -92686.9777         9252.452154        -138121.5911        -40908.87549         302753.2142
                   2                   6         115892.8073        -35542.43247        -80350.37482         9252.452154         58121.59106        -22403.97118         208860.9118
                   2                   7         115892.8073        -35542.43247        -80350.37482        -9252.452154         58121.59106         22403.97118         208860.9118
                   2                   8         103556.2044        -10869.22672         -92686.9777        -9252.452154        -138121.5911         40908.87549         302753.2142
                   3                   1        -34706.23503         3501.805418         31204.42961         -2430.69742        -72955.33232         -13851.3121         140877.5911
                   3                   2        -37947.16493         9983.665205         27963.49972         -2430.69742        -7044.667677        -8989.917258         62381.80869
                   3                   3        -37947.16493         9983.665205         27963.49972          2430.69742        -7044.667677         8989.917258         62381.80869
                   3                   4        -34706.23503         3501.805418         31204.42961          2430.69742        -72955.33232          13851.3121         140877.5911
                   3                   5         34706.23503        -3501.805418        -31204.42961          2430.69742        -72955.33232         -13851.3121         140877.5911
                   3                   6         37947.16493        -9983.665205        -27963.49972          2430.69742        -7044.667677        -8989.917258         62381.80869
                   3                   7         37947.16493        -9983.665205        -27963.49972         -2430.69742        -7044.667677         8989.917258         62381.80869
                   3                   8         34706.23503        -3501.805418        -31204.42961         -2430.69742        -72955.33232          13851.3121         140877.5911

***** Strain Data ******
          Element No         Integral No           Strain XX           Strain YY           Strain ZZ           Strain XY           Strain XZ           Strain YZ
----------------------------------------------------------------------------------------------------------------------------------------------------------------
                   1                   1       -0.8676948239        0.3915880138        0.4761068101        0.1154548229        -1.690468301      -0.08451879636
                   1                   2       -0.7907249419        0.2376482499        0.5530766921        0.1154548229        0.9971349673       -0.3154284422
                   1                   3       -0.7907249419        0.2376482499        0.5530766921       -0.1154548229        0.9971349673        0.3154284422
                   1                   4       -0.8676948239        0.3915880138        0.4761068101       -0.1154548229        -1.690468301       0.08451879636
                   1                   5        0.8676948239       -0.3915880138       -0.4761068101       -0.1154548229        -1.690468301      -0.08451879636
                   1                   6        0.7907249419       -0.2376482499       -0.5530766921       -0.1154548229        0.9971349673       -0.3154284422
                   1                   7        0.7907249419       -0.2376482499       -0.5530766921        0.1154548229        0.9971349673        0.3154284422
                   1                   8        0.8676948239       -0.3915880138       -0.4761068101        0.1154548229        -1.690468301       0.08451879636
                   2                   1       -0.4510280501       0.05325157465        0.3977764754       -0.0757083214        -1.195471192       -0.3445249008
                   2                   2       -0.5015002643        0.1541960032        0.3473042611       -0.0757083214        0.5021378588        -0.193108258
                   2                   3       -0.5015002643        0.1541960032        0.3473042611        0.0757083214        0.5021378588         0.193108258
                   2                   4       -0.4510280501       0.05325157465        0.3977764754        0.0757083214        -1.195471192        0.3445249008
                   2                   5        0.4510280501      -0.05325157465       -0.3977764754        0.0757083214        -1.195471192       -0.3445249008
                   2                   6        0.5015002643       -0.1541960032       -0.3473042611        0.0757083214        0.5021378588        -0.193108258
                   2                   7        0.5015002643       -0.1541960032       -0.3473042611       -0.0757083214        0.5021378588         0.193108258
                   2                   8        0.4510280501      -0.05325157465       -0.3977764754       -0.0757083214        -1.195471192        0.3445249008
                   3                   1       -0.1500040748        0.0141787036        0.1358253712       -0.0219100264       -0.6324961127       -0.1216466676
                   3                   2       -0.1646107591       0.04339207214         0.121218687       -0.0219100264      -0.06083722062      -0.07782661481
                   3                   3       -0.1646107591       0.04339207214         0.121218687        0.0219100264      -0.06083722062       0.07782661481
                   3                   4       -0.1500040748        0.0141787036        0.1358253712        0.0219100264       -0.6324961127        0.1216466676
                   3                   5        0.1500040748       -0.0141787036       -0.1358253712        0.0219100264       -0.6324961127       -0.1216466676
                   3                   6        0.1646107591      -0.04339207214        -0.121218687        0.0219100264      -0.06083722062      -0.07782661481
                   3                   7        0.1646107591      -0.04339207214        -0.121218687       -0.0219100264      -0.06083722062       0.07782661481
                   3                   8        0.1500040748       -0.0141787036       -0.1358253712       -0.0219100264       -0.6324961127        0.1216466676

***** Plastic Strain Data ******
          Element No         Integral No          PStrain XX          PStrain YY          PStrain ZZ          PStrain XY          PStrain XZ          PStrain YZ     Equivalent Plastic Strain
----------------------------------------------------------------------------------------------------------------------------------------------------------------------------------------------
                   1                   1       -0.1367707914       0.06189035036       0.07488044106       0.01774479389       -0.2757301762       -0.0129900907                  0.2103996277
                   1                   2                   0                   0                   0                   0                   0                   0                             0
                   1                   3                   0                   0                   0                   0                   0                   0                             0
                   1                   4       -0.1367707914       0.06189035036       0.07488044106      -0.01774479389       -0.2757301762        0.0129900907                  0.2103996277
                   1                   5        0.1367707914      -0.06189035036      -0.07488044106      -0.01774479389       -0.2757301762       -0.0129900907                  0.2103996277
                   1                   6                   0                   0                   0                   0                   0                   0                             0
                   1                   7                   0                   0                   0                   0                   0                   0                             0
                   1                   8        0.1367707914      -0.06189035036      -0.07488044106       0.01774479389       -0.2757301762        0.0129900907                  0.2103996277
                   2                   1                   0                   0                   0                   0                   0                   0                             0
                   2                   2                   0                   0                   0                   0                   0                   0                             0
                   2                   3                   0                   0                   0                   0                   0                   0                             0
                   2                   4                   0                   0                   0                   0                   0                   0                             0
                   2                   5                   0                   0                   0                   0                   0                   0                             0
                   2                   6                   0                   0                   0                   0                   0                   0                             0
                   2                   7                   0                   0                   0                   0                   0                   0                             0
                   2                   8                   0                   0                   0                   0                   0                   0                             0
                   3                   1                   0                   0                   0                   0                   0                   0                             0
                   3                   2                   0                   0                   0                   0                   0                   0                             0
                   3                   3                   0                   0                   0                   0                   0                   0                             0
                   3                   4                   0                   0                   0                   0                   0                   0                             0
                   3                   5                   0                   0                   0                   0                   0                   0                             0
                   3                   6                   0                   0                   0                   0                   0                   0                             0
                   3                   7                   0                   0                   0                   0                   0                   0                             0
                   3                   8                   0                   0                   0                   0                   0                   0                             0

***** Reaction Force Data ******
              NodeNo           Magnitude             X Force             Y Force             Z Force
----------------------------------------------------------------------------------------------------
                   1         43251.35066               42000        -7594.691189                7000
                   2     1.336678766e-11    -3.637978807e-12    -1.273292582e-11    -1.818989404e-12
                   3     2.095398619e-10    -6.184563972e-11     6.821210263e-12     2.000888344e-10
                   4     2.563873353e-10     2.614797268e-12     5.211830967e-11     2.510205377e-10
                   5         43251.35066              -42000         7594.691189                7000
                   6     7.113271967e-11    -3.637978807e-12    -2.273736754e-11     6.730260793e-11
                   7      2.35400423e-10    -3.819877747e-11     7.423750503e-11    -2.200977178e-10
                   8     7.423405697e-11     -4.28030944e-11     8.682832231e-12     6.002665032e-11
                   9         43251.35066               42000         7594.691189                7000
                  10     8.262522854e-11     6.184563972e-11    -1.773514668e-11      -5.1841198e-11
                  11     1.483300887e-10     8.367351256e-11     -6.66204869e-11     1.027729013e-10
                  12     1.236933693e-10    -1.080024958e-10     5.684341886e-12     6.002665032e-11
                  13         43251.35066              -42000        -7594.691189                7000
                  14     6.389968935e-11    -5.820766091e-11     6.821210263e-12     2.546585165e-11
                  15     2.092758228e-10                   0     1.571152097e-10    -1.382431947e-10
                  16     1.090239224e-10    -4.206412996e-11    -7.306866223e-11    -6.912159733e-11

*Increment 8

***** Displacement Data ******
              NodeNo           Magnitude      X Displacement      Y Displacement      Z Displacement
----------------------------------------------------------------------------------------------------
                   1                   0                   0                   0                   0
                   2          4.07099753        -2.660037378        0.3958451072        -3.056227854
                   3          11.3187871        -4.340234593        0.1362737195         -10.4526903
                   4         20.68544768        -4.906030162         0.061153629        -20.09514553
                   5                   0                   0                   0                   0
                   6          4.07099753         2.660037378       -0.3958451072        -3.056227854
                   7          11.3187871         4.340234593       -0.1362737195         -10.4526903
                   8         20.68544768         4.906030162        -0.061153629        -20.09514553
                   9                   0                   0                   0                   0
                  10          4.07099753        -2.660037378       -0.3958451072        -3.056227854
                  11          11.3187871        -4.340234593       -0.1362737195         -10.4526903
                  12         20.68544768        -4.906030162        -0.061153629        -20.09514553
                  13                   0                   0                   0                   0
                  14          4.07099753         2.660037378        0.3958451072        -3.056227854
                  15          11.3187871         4.340234593        0.1362737195         -10.4526903
                  16         20.68544768         4.906030162         0.061153629        -20.09514553

***** Stress Data ******
          Element No         Integral No           Stress XX           Stress YY           Stress ZZ           Stress XY           Stress XZ           Stress YZ               Mises
------------------------------------------------------------------------------------------------------------------------------------------------------------------------------------
                   1                   1        -190894.4894         86420.02238          104474.467         12331.41499         -193647.391        -9027.222302         442079.9255
                   1                   2        -194635.3681         59711.96544         134923.4027         13764.64834         113640.8656        -37605.71862         364736.7006
                   1                   3        -194635.3681         59711.96544         134923.4027        -13764.64834         113640.8656         37605.71862         364736.7006
                   1                   4        -190894.4894         86420.02238          104474.467        -12331.41499         -193647.391         9027.222302         442079.9255
                   1                   5         190894.4894        -86420.02238         -104474.467        -12331.41499         -193647.391        -9027.222302         442079.9255
                   1                   6         194635.3681        -59711.96544        -134923.4027        -13764.64834         113640.8656        -37605.71862         364736.7006
                   1                   7         194635.3681        -59711.96544        -134923.4027         13764.64834         113640.8656         37605.71862         364736.7006
                   1                   8         190894.4894        -86420.02238         -104474.467         12331.41499         -193647.391         9027.222302         442079.9255
                   2                   1        -103556.2044         10869.22672          92686.9777        -9252.452154        -138121.5911        -40908.87549         302753.2142
                   2                   2        -115892.8073         35542.43247         80350.37482        -9252.452154         58121.59106        -22403.97118         208860.9118
                   2                   3        -115892.8073         35542.43247         80350.37482         9252.452154         58121.59106         22403.97118         208860.9118
                   2                   4        -103556.2044         10869.22672          92686.9777         9252.452154        -138121.5911         40908.87549         302753.2142
                   2                   5         103556.2044        -10869.22672         -92686.9777         9252.452154        -138121.5911        -40908.87549         302753.2142
                   2                   6         115892.8073        -35542.43247        -80350.37482         9252.452154         58121.59106        -22403.97118         208860.9118
                   2                   7         115892.8073        -35542.43247        -80350.37482        -9252.452154         58121.59106         22403.97118         208860.9118
                   2                   8         103556.2044        -10869.22672         -92686.9777        -9252.452154        -138121.5911         40908.87549         302753.2142
                   3                   1        -34706.23503         3501.805418         31204.42961         -2430.69742        -72955.33232         -13851.3121         140877.5911
                   3                   2        -37947.16493         9983.665205         27963.49972         -2430.69742        -7044.667677        -8989.917258         62381.80869
                   3                   3        -37947.16493         9983.665205         27963.49972          2430.69742        -7044.667677         8989.917258         62381.80869
                   3                   4        -34706.23503         3501.805418         31204.42961          2430.69742        -72955.33232          13851.3121         140877.5911
                   3                   5         34706.23503        -3501.805418        -31204.42961          2430.69742        -72955.33232         -13851.3121         140877.5911
                   3                   6         37947.16493        -9983.665205        -27963.49972          2430.69742        -7044.667677        -8989.917258         62381.80869
                   3                   7         37947.16493        -9983.665205        -27963.49972         -2430.69742        -7044.667677         8989.917258         62381.80869
                   3                   8         34706.23503        -3501.805418        -31204.42961         -2430.69742        -72955.33232          13851.3121         140877.5911

***** Strain Data ******
          Element No         Integral No           Strain XX           Strain YY           Strain ZZ           Strain XY           Strain XZ           Strain YZ
----------------------------------------------------------------------------------------------------------------------------------------------------------------
                   1                   1       -0.9916512273        0.4475291586        0.5441220687        0.1319483691        -1.931963772      -0.09659291013
                   1                   2       -0.9036856479        0.2715979998        0.6320876481        0.1319483691          1.13958282       -0.3604896483
                   1                   3       -0.9036856479        0.2715979998        0.6320876481       -0.1319483691          1.13958282        0.3604896483
                   1                   4       -0.9916512273        0.4475291586        0.5441220687       -0.1319483691        -1.931963772       0.09659291013
                   1                   5        0.9916512273       -0.4475291586       -0.5441220687       -0.1319483691        -1.931963772      -0.09659291013
                   1                   6        0.9036856479       -0.2715979998       -0.6320876481       -0.1319483691          1.13958282       -0.3604896483
                   1                   7        0.9036856479       -0.2715979998       -0.6320876481        0.1319483691          1.13958282        0.3604896483
                   1                   8        0.9916512273       -0.4475291586       -0.5441220687        0.1319483691        -1.931963772       0.09659291013
                   2                   1       -0.5154606286       0.06085894246        0.4546016862      -0.08652379589        -1.366252791       -0.3937427437
                   2                   2       -0.5731431592        0.1762240036        0.3969191556      -0.08652379589        0.5738718386        -0.220695152
                   2                   3       -0.5731431592        0.1762240036        0.3969191556       0.08652379589        0.5738718386         0.220695152
                   2                   4       -0.5154606286       0.06085894246        0.4546016862       0.08652379589        -1.366252791        0.3937427437
                   2                   5        0.5154606286      -0.06085894246       -0.4546016862       0.08652379589        -1.366252791       -0.3937427437
                   2                   6        0.5731431592       -0.1762240036       -0.3969191556       0.08652379589        0.5738718386        -0.220695152
                   2                   7        0.5731431592       -0.1762240036       -0.3969191556      -0.08652379589        0.5738718386         0.220695152
                   2                   8        0.5154606286      -0.06085894246       -0.4546016862      -0.08652379589        -1.366252791        0.3937427437
                   3                   1       -0.1714332284       0.01620423269        0.1552289957      -0.02504003017       -0.7228527002        -0.139024763
                   3                   2       -0.1881265818       0.04959093959        0.1385356422      -0.02504003017      -0.06952825214      -0.08894470264
                   3                   3       -0.1881265818       0.04959093959        0.1385356422       0.02504003017      -0.06952825214       0.08894470264
                   3                   4       -0.1714332284       0.01620423269        0.1552289957       0.02504003017       -0.7228527002         0.139024763
                   3                   5        0.1714332284      -0.01620423269       -0.1552289957       0.02504003017       -0.7228527002        -0.139024763
                   3                   6        0.1881265818      -0.04959093959       -0.1385356422       0.02504003017      -0.06952825214      -0.08894470264
                   3                   7        0.1881265818      -0.04959093959       -0.1385356422      -0.02504003017      -0.06952825214       0.08894470264
                   3                   8        0.1714332284      -0.01620423269       -0.1552289957      -0.02504003017       -0.7228527002         0.139024763

***** Plastic Strain Data ******
          Element No         Integral No          PStrain XX          PStrain YY          PStrain ZZ          PStrain XY          PStrain XZ          PStrain YZ     Equivalent Plastic Strain
----------------------------------------------------------------------------------------------------------------------------------------------------------------------------------------------
                   1                   1       -0.1367707914       0.06189035036       0.07488044106       0.01774479389       -0.2757301762       -0.0129900907                  0.2103996277
                   1                   2                   0                   0                   0                   0                   0                   0                             0
                   1                   3                   0                   0                   0                   0                   0                   0                             0
                   1                   4       -0.1367707914       0.06189035036       0.07488044106      -0.01774479389       -0.2757301762        0.0129900907                  0.2103996277
                   1                   5        0.1367707914      -0.06189035036      -0.07488044106      -0.01774479389       -0.2757301762       -0.0129900907                  0.2103996277
                   1                   6                   0                   0                   0                   0                   0                   0                             0
                   1                   7                   0                   0                   0                   0                   0                   0                             0
                   1                   8        0.1367707914      -0.06189035036      -0.07488044106       0.01774479389       -0.2757301762        0.0129900907                  0.2103996277
                   2                   1                   0                   0                   0                   0                   0                   0                             0
                   2                   2                   0                   0                   0                   0                   0                   0                             0
                   2                   3                   0                   0                   0                   0                   0                   0                             0
                   2                   4                   0                   0                   0                   0                   0                   0                             0
                   2                   5                   0                   0                   0                   0                   0                   0                             0
                   2                   6                   0                   0                   0                   0                   0                   0                             0
                   2                   7                   0                   0                   0                   0                   0                   0                             0
                   2                   8                   0                   0                   0                   0                   0                   0                             0
                   3                   1                   0                   0                   0                   0                   0                   0                             0
                   3                   2                   0                   0                   0                   0                   0                   0                             0
                   3                   3                   0                   0                   0                   0                   0                   0                             0
                   3                   4                   0                   0                   0                   0                   0                   0                             0
                   3                   5                   0                   0                   0                   0                   0                   0                             0
                   3                   6                   0                   0                   0                   0                   0                   0                             0
                   3                   7                   0                   0                   0                   0                   0                   0                             0
                   3                   8                   0                   0                   0                   0                   0                   0                             0

***** Reaction Force Data ******
              NodeNo           Magnitude             X Force             Y Force             Z Force
----------------------------------------------------------------------------------------------------
                   1         49430.11504               48000        -8679.647073                8000
                   2     4.213228684e-11     3.274180926e-11     2.728484105e-12     2.637534635e-11
                   3      3.24734905e-10    -7.094058674e-11     5.570655048e-11     3.119566827e-10
                   4     4.006119179e-10    -6.281197784e-11     8.446932043e-11     3.865352483e-10
                   5         49430.11504              -48000         8679.647073                8000
                   6     3.534472408e-11     7.275957614e-12     1.364242053e-12     3.456079867e-11
                   7     4.229449239e-10     5.638867151e-11     1.484750101e-10    -3.919922165e-10
                   8     6.441082402e-11    -5.110223356e-11     3.640820978e-11     1.455191523e-11
                   9         49430.11504               48000         8679.647073                8000
                  10     9.426003265e-11     8.367351256e-11     -2.50111043e-11    -3.547029337e-11
                  11     1.970857653e-10     3.819877747e-11    -1.070930011e-10     1.609805622e-10
                  12      2.98236141e-10    -2.071374183e-10    -6.156142263e-11     2.055458026e-10
                  13         49430.11504              -48000        -8679.647073                8000
                  14     6.375551372e-11    -5.820766091e-11    -1.546140993e-11    -2.091837814e-11
                  15     3.121847188e-10     5.638867151e-11     1.257376425e-10    -2.801243681e-10
                  16     1.840808237e-10    -7.207745512e-11    -1.176339026e-10      -1.2187229e-10

*Increment 9

***** Displacement Data ******
              NodeNo           Magnitude      X Displacement      Y Displacement      Z Displacement
----------------------------------------------------------------------------------------------------
                   1                   0                   0                   0                   0
                   2         4.638850674        -3.023571147        0.4477718805        -3.489477531
                   3         12.85090943        -4.914375245        0.1528996069        -11.87313821
                   4         23.45056364        -5.550815587       0.06892730234        -22.78404333
                   5                   0                   0                   0                   0
                   6         4.638850674         3.023571147       -0.4477718805        -3.489477531
                   7         12.85090943         4.914375245       -0.1528996069        -11.87313821
                   8         23.45056364         5.550815587      -0.06892730234        -22.78404333
                   9                   0                   0                   0                   0
                  10         4.638850674        -3.023571147       -0.4477718805        -3.489477531
                  11         12.85090943        -4.914375245       -0.1528996069        -11.87313821
                  12         23.45056364        -5.550815587      -0.06892730234        -22.78404333
                  13                   0                   0                   0                   0
                  14         4.638850674         3.023571147        0.4477718805        -3.489477531
                  15         12.85090943         4.914375245        0.1528996069        -11.87313821
                  16         23.45056364         5.550815587       0.06892730234        -22.78404333

***** Stress Data ******
          Element No         Integral No           Stress XX           Stress YY           Stress ZZ           Stress XY           Stress XZ           Stress YZ               Mises
------------------------------------------------------------------------------------------------------------------------------------------------------------------------------------
                   1                   1        -190894.4894         86420.02238          104474.467         12331.41499         -193647.391        -9027.222302         442079.9255
                   1                   2        -194635.3681         59711.96544         134923.4027         13764.64834         113640.8656        -37605.71862         364736.7006
                   1                   3        -194635.3681         59711.96544         134923.4027        -13764.64834         113640.8656         37605.71862         364736.7006
                   1                   4        -190894.4894         86420.02238          104474.467        -12331.41499         -193647.391         9027.222302         442079.9255
                   1                   5         190894.4894        -86420.02238         -104474.467        -12331.41499         -193647.391        -9027.222302         442079.9255
                   1                   6         194635.3681        -59711.96544        -134923.4027        -13764.64834         113640.8656        -37605.71862         364736.7006
                   1                   7         194635.3681        -59711.96544        -134923.4027         13764.64834         113640.8656         37605.71862         364736.7006
                   1                   8         190894.4894        -86420.02238         -104474.467         12331.41499         -193647.391         9027.222302         442079.9255
                   2                   1        -103556.2044         10869.22672          92686.9777        -9252.452154        -138121.5911        -40908.87549         302753.2142
                   2                   2        -115892.8073         35542.43247         80350.37482        -9252.452154         58121.59106        -22403.97118         208860.9118
                   2                   3        -115892.8073         35542.43247         80350.37482         9252.452154         58121.59106         22403.97118         208860.9118
                   2                   4        -103556.2044         10869.22672          92686.9777         9252.452154        -138121.5911         40908.87549         302753.2142
                   2                   5         103556.2044        -10869.22672         -92686.9777         9252.452154        -138121.5911        -40908.87549         302753.2142
                   2                   6         115892.8073        -35542.43247        -80350.37482         9252.452154         58121.59106        -22403.97118         208860.9118
                   2                   7         115892.8073        -35542.43247        -80350.37482        -9252.452154         58121.59106         22403.97118         208860.9118
                   2                   8         103556.2044        -10869.22672         -92686.9777        -9252.452154        -138121.5911         40908.87549         302753.2142
                   3                   1        -34706.23503         3501.805418         31204.42961         -2430.69742        -72955.33232         -13851.3121         140877.5911
                   3                   2        -37947.16493         9983.665205         27963.49972         -2430.69742        -7044.667677        -8989.917258         62381.80869
                   3                   3        -37947.16493         9983.665205         27963.49972          2430.69742        -7044.667677         8989.917258         62381.80869
                   3                   4        -34706.23503         3501.805418         31204.42961          2430.69742        -72955.33232          13851.3121         140877.5911
                   3                   5         34706.23503        -3501.805418        -31204.42961          2430.69742        -72955.33232         -13851.3121         140877.5911
                   3                   6         37947.16493        -9983.665205        -27963.49972          2430.69742        -7044.667677        -8989.917258         62381.80869
                   3                   7         37947.16493        -9983.665205        -27963.49972         -2430.69742        -7044.667677         8989.917258         62381.80869
                   3                   8         34706.23503        -3501.805418        -31204.42961         -2430.69742        -72955.33232          13851.3121         140877.5911

***** Strain Data ******
          Element No         Integral No           Strain XX           Strain YY           Strain ZZ           Strain XY           Strain XZ           Strain YZ
----------------------------------------------------------------------------------------------------------------------------------------------------------------
                   1                   1         -1.12735177        0.5090439237         0.618307846        0.1492572935           -2.211566       -0.1092639222
                   1                   2        -1.027846907        0.3100341991        0.7178127083        0.1492572935         1.279753231       -0.4077785092
                   1                   3        -1.027846907        0.3100341991        0.7178127083       -0.1492572935         1.279753231        0.4077785092
                   1                   4         -1.12735177        0.5090439237         0.618307846       -0.1492572935           -2.211566        0.1092639222
                   1                   5          1.12735177       -0.5090439237        -0.618307846       -0.1492572935           -2.211566       -0.1092639222
                   1                   6         1.027846907       -0.3100341991       -0.7178127083       -0.1492572935         1.279753231       -0.4077785092
                   1                   7         1.027846907       -0.3100341991       -0.7178127083        0.1492572935         1.279753231        0.4077785092
                   1                   8          1.12735177       -0.5090439237        -0.618307846        0.1492572935           -2.211566        0.1092639222
                   2                   1       -0.5794079692        0.0671596832         0.512248286      -0.09829075787        -1.537370541       -0.4450886028
                   2                   2       -0.6449351411         0.198214027        0.4467211141      -0.09829075787        0.6459419695       -0.2485070871
                   2                   3       -0.6449351411         0.198214027        0.4467211141       0.09829075787        0.6459419695        0.2485070871
                   2                   4       -0.5794079692        0.0671596832         0.512248286       0.09829075787        -1.537370541        0.4450886028
                   2                   5        0.5794079692       -0.0671596832        -0.512248286       0.09829075787        -1.537370541       -0.4450886028
                   2                   6        0.6449351411        -0.198214027       -0.4467211141       0.09829075787        0.6459419695       -0.2485070871
                   2                   7        0.6449351411        -0.198214027       -0.4467211141      -0.09829075787        0.6459419695        0.2485070871
                   2                   8        0.5794079692       -0.0671596832        -0.512248286      -0.09829075787        -1.537370541        0.4450886028
                   3                   1        -0.192945137       0.01844127151        0.1745038655      -0.02799076819       -0.8131632882        -0.156062594
                   3                   2       -0.2116056491       0.05576229576        0.1558433533      -0.02799076819      -0.07826528327       -0.1000810576
                   3                   3       -0.2116056491       0.05576229576        0.1558433533       0.02799076819      -0.07826528327        0.1000810576
                   3                   4        -0.192945137       0.01844127151        0.1745038655       0.02799076819       -0.8131632882         0.156062594
                   3                   5         0.192945137      -0.01844127151       -0.1745038655       0.02799076819       -0.8131632882        -0.156062594
                   3                   6        0.2116056491      -0.05576229576       -0.1558433533       0.02799076819      -0.07826528327       -0.1000810576
                   3                   7        0.2116056491      -0.05576229576       -0.1558433533      -0.02799076819      -0.07826528327        0.1000810576
                   3                   8         0.192945137      -0.01844127151       -0.1745038655      -0.02799076819       -0.8131632882         0.156062594

***** Plastic Strain Data ******
          Element No         Integral No          PStrain XX          PStrain YY          PStrain ZZ          PStrain XY          PStrain XZ          PStrain YZ     Equivalent Plastic Strain
----------------------------------------------------------------------------------------------------------------------------------------------------------------------------------------------
                   1                   1       -0.1367707914       0.06189035036       0.07488044106       0.01774479389       -0.2757301762       -0.0129900907                  0.2103996277
                   1                   2                   0                   0                   0                   0                   0                   0                             0
                   1                   3                   0                   0                   0                   0                   0                   0                             0
                   1                   4       -0.1367707914       0.06189035036       0.07488044106      -0.01774479389       -0.2757301762        0.0129900907                  0.2103996277
                   1                   5        0.1367707914      -0.06189035036      -0.07488044106      -0.01774479389       -0.2757301762       -0.0129900907                  0.2103996277
                   1                   6                   0                   0                   0                   0                   0                   0                             0
                   1                   7                   0                   0                   0                   0                   0                   0                             0
                   1                   8        0.1367707914      -0.06189035036      -0.07488044106       0.01774479389       -0.2757301762        0.0129900907                  0.2103996277
                   2                   1                   0                   0                   0                   0                   0                   0                             0
                   2                   2                   0                   0                   0                   0                   0                   0                             0
                   2                   3                   0                   0                   0                   0                   0                   0                             0
                   2                   4                   0                   0                   0                   0                   0                   0                             0
                   2                   5                   0                   0                   0                   0                   0                   0                             0
                   2                   6                   0                   0                   0                   0                   0                   0                             0
                   2                   7                   0                   0                   0                   0                   0                   0                             0
                   2                   8                   0                   0                   0                   0                   0                   0                             0
                   3                   1                   0                   0                   0                   0                   0                   0                             0
                   3                   2                   0                   0                   0                   0                   0                   0                             0
                   3                   3                   0                   0                   0                   0                   0                   0                             0
                   3                   4                   0                   0                   0                   0                   0                   0                             0
                   3                   5                   0                   0                   0                   0                   0                   0                             0
                   3                   6                   0                   0                   0                   0                   0                   0                             0
                   3                   7                   0                   0                   0                   0                   0                   0                             0
                   3                   8                   0                   0                   0                   0                   0                   0                             0

***** Reaction Force Data ******
              NodeNo           Magnitude             X Force             Y Force             Z Force
----------------------------------------------------------------------------------------------------
                   1         55601.30839         53999.99981        -9721.394909         8999.999768
                   2     0.0003594770502    -0.0002725923259    -3.525837838e-05     0.0002316765422
                   3     8.494925169e-11    -3.637978807e-11    -2.933120413e-11    -7.094058674e-11
                   4     1.293705021e-10     4.160938261e-11    -2.434319413e-11    -1.200533006e-10
                   5         55601.30839        -53999.99981         9721.394909         8999.999768
                   6     0.0003594770502     0.0002725923405     3.525838611e-05      0.000231676524
                   7     1.413571369e-10    -8.731149137e-11    -2.114575182e-11     1.091393642e-10
                   8     8.676306857e-11     3.740296961e-11    -1.709565822e-11     7.639755495e-11
                   9         55601.30839         53999.99981         9721.394909         8999.999768
                  10       0.00035947702     -0.000272592275     3.525836928e-05     0.0002316765567
                  11     4.422987846e-11    -3.637978807e-11     2.455635695e-11     5.456968211e-12
                  12     1.088740685e-10     7.617018127e-11     1.466560207e-11    -7.639755495e-11
                  13         55601.30839        -53999.99981        -9721.394909         8999.999768
                  14     0.0003594770697      0.000272592355    -3.525840066e-05     0.0002316765349
                  15     1.190763124e-10    -9.458744898e-11     3.751665645e-11     6.184563972e-11
                  16     7.121018921e-11     3.865352483e-11     4.087752359e-11     4.365574569e-11

*Increment 10

***** Displacement Data ******
              NodeNo           Magnitude      X Displacement      Y Displacement      Z Displacement
----------------------------------------------------------------------------------------------------
                   1                   0                   0                   0                   0
                   2         5.487211296        -3.533601408        0.5112583671        -4.166744986
                   3         14.93900919         -5.63776384        0.1675958585        -13.83334833
                   4         27.06506418        -6.344472439       0.07731281143         -26.3108227
                   5                   0                   0                   0                   0
                   6         5.487211296         3.533601408       -0.5112583671        -4.166744986
                   7         14.93900919          5.63776384       -0.1675958585        -13.83334833
                   8         27.06506418         6.344472439      -0.07731281143         -26.3108227
                   9                   0                   0                   0                   0
                  10         5.487211296        -3.533601408       -0.5112583671        -4.166744986
                  11         14.93900919         -5.63776384       -0.1675958585        -13.83334833
                  12         27.06506418        -6.344472439      -0.07731281143         -26.3108227
                  13                   0                   0                   0                   0
                  14         5.487211296         3.533601408        0.5112583671        -4.166744986
                  15         14.93900919          5.63776384        0.1675958585        -13.83334833
                  16         27.06506418         6.344472439       0.07731281143         -26.3108227

***** Stress Data ******
          Element No         Integral No           Stress XX           Stress YY           Stress ZZ           Stress XY           Stress XZ           Stress YZ               Mises
------------------------------------------------------------------------------------------------------------------------------------------------------------------------------------
                   1                   1        -190894.4894         86420.02238          104474.467         12331.41499         -193647.391        -9027.222302         442079.9255
                   1                   2        -194635.3681         59711.96544         134923.4027         13764.64834         113640.8656        -37605.71862         364736.7006
                   1                   3        -194635.3681         59711.96544         134923.4027        -13764.64834         113640.8656         37605.71862         364736.7006
                   1                   4        -190894.4894         86420.02238          104474.467        -12331.41499         -193647.391         9027.222302         442079.9255
                   1                   5         190894.4894        -86420.02238         -104474.467        -12331.41499         -193647.391        -9027.222302         442079.9255
                   1                   6         194635.3681        -59711.96544        -134923.4027        -13764.64834         113640.8656        -37605.71862         364736.7006
                   1                   7         194635.3681        -59711.96544        -134923.4027         13764.64834         113640.8656         37605.71862         364736.7006
                   1                   8         190894.4894        -86420.02238         -104474.467         12331.41499         -193647.391         9027.222302         442079.9255
                   2                   1        -103556.2044         10869.22672          92686.9777        -9252.452154        -138121.5911        -40908.87549         302753.2142
                   2                   2        -115892.8073         35542.43247         80350.37482        -9252.452154         58121.59106        -22403.97118         208860.9118
                   2                   3        -115892.8073         35542.43247         80350.37482         9252.452154         58121.59106         22403.97118         208860.9118
                   2                   4        -103556.2044         10869.22672          92686.9777         9252.452154        -138121.5911         40908.87549         302753.2142
                   2                   5         103556.2044        -10869.22672         -92686.9777         9252.452154        -138121.5911        -40908.87549         302753.2142
                   2                   6         115892.8073        -35542.43247        -80350.37482         9252.452154         58121.59106        -22403.97118         208860.9118
                   2                   7         115892.8073        -35542.43247        -80350.37482        -9252.452154         58121.59106         22403.97118         208860.9118
                   2                   8         103556.2044        -10869.22672         -92686.9777        -9252.452154        -138121.5911         40908.87549         302753.2142
                   3                   1        -34706.23503         3501.805418         31204.42961         -2430.69742        -72955.33232         -13851.3121         140877.5911
                   3                   2        -37947.16493         9983.665205         27963.49972         -2430.69742        -7044.667677        -8989.917258         62381.80869
                   3                   3        -37947.16493         9983.665205         27963.49972          2430.69742        -7044.667677         8989.917258         62381.80869
                   3                   4        -34706.23503         3501.805418         31204.42961          2430.69742        -72955.33232          13851.3121         140877.5911
                   3                   5         34706.23503        -3501.805418        -31204.42961          2430.69742        -72955.33232         -13851.3121         140877.5911
                   3                   6         37947.16493        -9983.665205        -27963.49972          2430.69742        -7044.667677        -8989.917258         62381.80869
                   3                   7         37947.16493        -9983.665205        -27963.49972         -2430.69742        -7044.667677         8989.917258         62381.80869
                   3                   8         34706.23503        -3501.805418        -31204.42961         -2430.69742        -72955.33232          13851.3121         140877.5911

***** Strain Data ******
          Element No         Integral No           Strain XX           Strain YY           Strain ZZ           Strain XY           Strain XZ           Strain YZ
----------------------------------------------------------------------------------------------------------------------------------------------------------------
                   1                   1        -1.318498583        0.5968714413        0.7216271414        0.1704194557        -2.673269302       -0.1247557002
                   1                   2        -1.204885612        0.3696455004        0.8352401119        0.1704194557         1.406982146       -0.4655946115
                   1                   3        -1.204885612        0.3696455004        0.8352401119       -0.1704194557         1.406982146        0.4655946115
                   1                   4        -1.318498583        0.5968714413        0.7216271414       -0.1704194557        -2.673269302        0.1247557002
                   1                   5         1.318498583       -0.5968714413       -0.7216271414       -0.1704194557        -2.673269302       -0.1247557002
                   1                   6         1.204885612       -0.3696455004       -0.8352401119       -0.1704194557         1.406982146       -0.4655946115
                   1                   7         1.204885612       -0.3696455004       -0.8352401119        0.1704194557         1.406982146        0.4655946115
                   1                   8         1.318498583       -0.5968714413       -0.7216271414        0.1704194557        -2.673269302        0.1247557002
                   2                   1       -0.6410622178       0.06728568922        0.5737765286       -0.1145541695        -1.710076842       -0.5064908394
                   2                   2       -0.7174316642        0.2200245819        0.4974070822       -0.1145541695        0.7196006512       -0.2773825003
                   2                   3       -0.7174316642        0.2200245819        0.4974070822        0.1145541695        0.7196006512        0.2773825003
                   2                   4       -0.6410622178       0.06728568922        0.5737765286        0.1145541695        -1.710076842        0.5064908394
                   2                   5        0.6410622178      -0.06728568922       -0.5737765286        0.1145541695        -1.710076842       -0.5064908394
                   2                   6        0.7174316642       -0.2200245819       -0.4974070822        0.1145541695        0.7196006512       -0.2773825003
                   2                   7        0.7174316642       -0.2200245819       -0.4974070822       -0.1145541695        0.7196006512        0.2773825003
                   2                   8        0.6410622178      -0.06728568922       -0.5737765286       -0.1145541695        -1.710076842        0.5064908394
                   3                   1       -0.2148481216       0.02167784306        0.1931702786      -0.03009434901       -0.9032564954       -0.1714924355
                   3                   2        -0.234911021       0.06180364175        0.1731073792      -0.03009434901      -0.08721969504       -0.1113037375
                   3                   3        -0.234911021       0.06180364175        0.1731073792       0.03009434901      -0.08721969504        0.1113037375
                   3                   4       -0.2148481216       0.02167784306        0.1931702786       0.03009434901       -0.9032564954        0.1714924355
                   3                   5        0.2148481216      -0.02167784306       -0.1931702786       0.03009434901       -0.9032564954       -0.1714924355
                   3                   6         0.234911021      -0.06180364175       -0.1731073792       0.03009434901      -0.08721969504       -0.1113037375
                   3                   7         0.234911021      -0.06180364175       -0.1731073792      -0.03009434901      -0.08721969504        0.1113037375
                   3                   8        0.2148481216      -0.02167784306       -0.1931702786      -0.03009434901       -0.9032564954        0.1714924355

***** Plastic Strain Data ******
          Element No         Integral No          PStrain XX          PStrain YY          PStrain ZZ          PStrain XY          PStrain XZ          PStrain YZ     Equivalent Plastic Strain
----------------------------------------------------------------------------------------------------------------------------------------------------------------------------------------------
                   1                   1       -0.1367707914       0.06189035036       0.07488044106       0.01774479389       -0.2757301762       -0.0129900907                  0.2103996277
                   1                   2                   0                   0                   0                   0                   0                   0                             0
                   1                   3                   0                   0                   0                   0                   0                   0                             0
                   1                   4       -0.1367707914       0.06189035036       0.07488044106      -0.01774479389       -0.2757301762        0.0129900907                  0.2103996277
                   1                   5        0.1367707914      -0.06189035036      -0.07488044106      -0.01774479389       -0.2757301762       -0.0129900907                  0.2103996277
                   1                   6                   0                   0                   0                   0                   0                   0                             0
                   1                   7                   0                   0                   0                   0                   0                   0                             0
                   1                   8        0.1367707914      -0.06189035036      -0.07488044106       0.01774479389       -0.2757301762        0.0129900907                  0.2103996277
                   2                   1                   0                   0                   0                   0                   0                   0                             0
                   2                   2                   0                   0                   0                   0                   0                   0                             0
                   2                   3                   0                   0                   0                   0                   0                   0                             0
                   2                   4                   0                   0                   0                   0                   0                   0                             0
                   2                   5                   0                   0                   0                   0                   0                   0                             0
                   2                   6                   0                   0                   0                   0                   0                   0                             0
                   2                   7                   0                   0                   0                   0                   0                   0                             0
                   2                   8                   0                   0                   0                   0                   0                   0                             0
                   3                   1                   0                   0                   0                   0                   0                   0                             0
                   3                   2                   0                   0                   0                   0                   0                   0                             0
                   3                   3                   0                   0                   0                   0                   0                   0                             0
                   3                   4                   0                   0                   0                   0                   0                   0                             0
                   3                   5                   0                   0                   0                   0                   0                   0                             0
                   3                   6                   0                   0                   0                   0                   0                   0                             0
                   3                   7                   0                   0                   0                   0                   0                   0                             0
                   3                   8                   0                   0                   0                   0                   0                   0                             0

***** Reaction Force Data ******
              NodeNo           Magnitude             X Force             Y Force             Z Force
----------------------------------------------------------------------------------------------------
                   1         61740.22367         60000.65625        -10571.66755         10000.81566
                   2         1.273828518        0.9750812972       0.08091042836       -0.8156647957
                   3      4.94573025e-11    -7.275957614e-12    -4.888534022e-11     1.818989404e-12
                   4     8.473533595e-11     3.251443559e-11     2.879119165e-11    -7.275957614e-11
                   5         61740.22367        -60000.65625         10571.66755         10000.81566
                   6         1.273828518       -0.9750812971      -0.08091042834       -0.8156647957
                   7     6.369750861e-11     -5.09317033e-11     1.978150976e-11    -3.274180926e-11
                   8     4.035822693e-11    -1.705302566e-12    -4.945377441e-12     4.001776688e-11
                   9         61740.22367         60000.65625         10571.66755         10000.81566
                  10         1.273828518        0.9750812972      -0.08091042836       -0.8156647957
                  11     1.311236604e-10     1.091393642e-11    -5.934452929e-11     1.164153218e-10
                  12     6.075838262e-11     5.502442946e-11    -3.922195901e-12    -2.546585165e-11
                  13         61740.22367        -60000.65625        -10571.66755         10000.81566
                  14         1.273828518       -0.9750812972       0.08091042837       -0.8156647957
                  15     1.208398571e-10    -8.731149137e-11     5.616129783e-11     6.184563972e-11
                  16     5.899537065e-11     7.048583939e-12    -6.529887742e-12    -5.820766091e-11

